<?xml version="1.0" encoding="UTF-8"?>
<xrdMeasurements xmlns="http://www.xrdml.com/XRDMeasurement/1.5" xmlns:xsi="http://www.w3.org/2001/XMLSchema-instance" xsi:schemaLocation="http://www.xrdml.com/XRDMeasurement/1.5 http://www.xrdml.com/XRDMeasurement/1.5/XRDMeasurement.xsd" status="Completed">
	<comment>
		<entry>Program made during training, refer to manual.</entry>
		<entry>Configuration=Reflection-transmission spinner, Owner=User-1, Creation date=12/4/2012 10:13:13 AM</entry>
		<entry>Goniometer=Theta/Theta; Minimum step size 2Theta:0.0001; Minimum step size Omega:0.0001</entry>
		<entry>Sample stage=Reflection-transmission spinner; Minimum step size Phi:0.1</entry>
		<entry>Diffractometer system=EMPYREAN</entry>
		<entry>Measurement program=Z:\Z Drive XRD Data\Nicholas Derimow\20-100-40s_fast_spin.xrdmp, Identifier={4CA263F6-2731-4F25-A6B7-6F42DD54A9D9}</entry>
	</comment>
	<sample type="To be analyzed">
		<id></id>
		<name></name>
		<preparedBy></preparedBy>
	</sample>
	<xrdMeasurement measurementType="Scan" status="Completed" sampleMode="Reflection">
		<comment>
			<entry/>
		</comment>
		<usedWavelength intended="K-Alpha 1">
			<kAlpha1 unit="Angstrom">1.5405980</kAlpha1>
			<kAlpha2 unit="Angstrom">1.5444260</kAlpha2>
			<kBeta unit="Angstrom">1.3922500</kBeta>
			<ratioKAlpha2KAlpha1>0.5000</ratioKAlpha2KAlpha1>
		</usedWavelength>
		<incidentBeamPath>
			<radius unit="mm">240.00</radius>
			<xRayTube id="1010041" name="Empyrean Cu LFF (9430 033 7300x) DK412263">
				<tension unit="kV">45</tension>
				<current unit="mA">40</current>
				<anodeMaterial>Cu</anodeMaterial>
				<focus type="Line">
					<length unit="mm">12.0</length>
					<width unit="mm">0.4</width>
					<takeOffAngle unit="deg">6.0</takeOffAngle>
				</focus>
			</xRayTube>
			<sollerSlit id="21010002" name="Soller slits 0.04 rad.">
				<opening unit="rad">0.0400</opening>
			</sollerSlit>
			<mask id="22080002" name="Fixed incident beam mask 10 mm">
				<distanceToSample unit="mm">8.00</distanceToSample>
				<width unit="mm">6.60</width>
			</mask>
			<antiScatterSlit id="22010003" name="Fixed slit 1°" xsi:type="fixedAntiScatterSlitType">
				<height unit="mm">1.52</height>
			</antiScatterSlit>
			<divergenceSlit id="22010004" name="Fixed slit 1/2°" xsi:type="fixedDivergenceSlitType">
				<distanceToSample unit="mm">140.00</distanceToSample>
				<height unit="mm">0.76</height>
			</divergenceSlit>
		</incidentBeamPath>
		<sampleMovement xsi:type="spinningSampleMovementType">
			<spinnerRevolutionTime unit="seconds">0.5</spinnerRevolutionTime>
		</sampleMovement>
		<diffractedBeamPath>
			<radius unit="mm">240.00</radius>
			<antiScatterSlit id="22090010" name="AS slit 8.0 mm (PIXcel)" xsi:type="fixedAntiScatterSlitType">
				<height unit="mm">8.00</height>
			</antiScatterSlit>
			<sollerSlit id="21020003" name="Large Soller slits 0.04 rad.">
				<opening unit="rad">0.0400</opening>
			</sollerSlit>
			<filter id="20030001" name="Large beta-filter Nickel">
				<material>Ni</material>
				<thickness unit="mm">0.020</thickness>
			</filter>
			<detector id="7010015" name="PIXcel1D detector" xsi:type="rtmsDetectorType">
				<phd>
					<lowerLevel unit="%">25.0</lowerLevel>
					<upperLevel unit="%">70.0</upperLevel>
				</phd>
				<mode>Scanning</mode>
				<activeLength unit="deg">3.3473</activeLength>
			</detector>
		</diffractedBeamPath>
		<scan appendNumber="0" mode="Continuous" scanAxis="Gonio" status="Completed">
			<header>
				<startTimeStamp>2018-02-12T15:16:45-08:00</startTimeStamp>
				<endTimeStamp>2018-02-12T15:24:59-08:00</endTimeStamp>
				<author>
					<name>msexrd</name>
				</author>
				<source>
					<applicationSoftware version="4.1">Data Collector</applicationSoftware>
					<instrumentControlSoftware version="7.6 ">EMPYREAN</instrumentControlSoftware>
					<instrumentID>0000000011134078</instrumentID>
				</source>
			</header>
			<dataPoints>
				<positions axis="2Theta" unit="deg">
					<startPosition>20.02343028</startPosition>
					<endPosition>99.98685073</endPosition>
				</positions>
				<positions axis="Omega" unit="deg">
					<startPosition>10.01171514</startPosition>
					<endPosition>49.99342537</endPosition>
				</positions>
				<positions axis="Phi" unit="deg">
					<commonPosition>290.7</commonPosition>
				</positions>
				<commonCountingTime unit="seconds">36.465</commonCountingTime>
				<intensities unit="counts">1380 1412 1365 1373 1322 1352 1320 1360 1379 1392 1342 1356 1399 1340 1360 1311 1336 1368 1355 1344 1335 1333 1390 1319 1412 1395 1296 1361 1386 1290 1274 1344 1333 1336 1413 1418 1319 1334 1313 1360 1332 1392 1299 1381 1382 1333 1414 1342 1390 1389 1336 1408 1368 1398 1296 1338 1392 1351 1361 1435 1355 1357 1397 1346 1390 1371 1373 1366 1410 1450 1325 1400 1338 1337 1353 1413 1369 1412 1435 1360 1396 1327 1336 1422 1429 1443 1402 1381 1394 1367 1445 1404 1366 1394 1328 1398 1442 1358 1404 1348 1395 1340 1320 1379 1404 1446 1412 1385 1417 1434 1408 1354 1425 1371 1407 1421 1373 1400 1416 1386 1428 1418 1444 1399 1332 1384 1410 1386 1410 1385 1389 1406 1409 1369 1447 1400 1382 1389 1421 1333 1403 1400 1364 1393 1363 1397 1401 1369 1365 1399 1446 1465 1454 1460 1443 1401 1403 1449 1460 1417 1433 1453 1470 1420 1479 1461 1496 1403 1387 1473 1358 1365 1478 1441 1455 1435 1457 1431 1413 1425 1417 1426 1420 1441 1426 1434 1514 1387 1438 1446 1414 1451 1395 1497 1482 1441 1461 1395 1455 1449 1468 1475 1474 1488 1406 1470 1471 1442 1416 1501 1516 1477 1501 1446 1400 1437 1423 1366 1430 1480 1407 1414 1446 1464 1507 1519 1486 1513 1464 1454 1475 1384 1530 1507 1447 1462 1501 1466 1436 1496 1419 1446 1469 1476 1459 1528 1469 1516 1446 1476 1453 1493 1484 1459 1473 1453 1547 1547 1468 1522 1453 1537 1480 1472 1562 1537 1475 1462 1530 1511 1496 1463 1447 1522 1458 1463 1435 1536 1475 1544 1494 1540 1458 1541 1545 1546 1530 1531 1539 1489 1447 1509 1497 1487 1474 1525 1457 1495 1510 1551 1501 1507 1481 1484 1487 1556 1420 1542 1447 1497 1486 1609 1480 1556 1565 1480 1549 1454 1503 1525 1554 1505 1541 1520 1473 1508 1520 1523 1478 1510 1498 1564 1453 1493 1555 1567 1546 1517 1464 1532 1547 1534 1495 1570 1495 1572 1477 1544 1543 1578 1560 1518 1556 1543 1554 1560 1538 1584 1505 1711 1546 1547 1534 1616 1530 1566 1521 1496 1574 1557 1597 1536 1554 1592 1496 1444 1533 1548 1576 1559 1551 1480 1584 1572 1667 1556 1472 1488 1534 1657 1517 1451 1528 1582 1608 1509 1588 1583 1650 1555 1529 1565 1585 1553 1469 1556 1551 1542 1647 1537 1547 1606 1555 1554 1571 1573 1528 1648 1624 1680 1651 1593 1578 1641 1562 1578 1592 1586 1592 1653 1642 1557 1575 1573 1592 1631 1607 1586 1600 1614 1682 1653 1610 1707 1675 1628 1608 1610 1640 1574 1638 1598 1611 1574 1608 1556 1529 1566 1577 1632 1630 1619 1560 1582 1672 1753 1618 1641 1671 1647 1666 1658 1611 1671 1642 1668 1669 1636 1606 1627 1669 1632 1597 1539 1642 1657 1633 1604 1593 1635 1638 1536 1691 1601 1695 1664 1652 1687 1568 1688 1671 1626 1626 1676 1596 1640 1689 1704 1669 1638 1629 1695 1648 1702 1651 1716 1757 1710 1672 1635 1647 1760 1651 1742 1748 1708 1650 1635 1729 1556 1656 1612 1695 1705 1648 1710 1723 1728 1606 1692 1741 1686 1728 1707 1733 1671 1732 1706 1626 1664 1697 1726 1631 1665 1779 1663 1730 1716 1599 1661 1785 1755 1607 1694 1714 1674 1684 1691 1655 1661 1662 1635 1727 1739 1764 1691 1690 1667 1624 1803 1717 1764 1725 1697 1771 1638 1710 1668 1679 1729 1675 1691 1741 1795 1674 1729 1744 1709 1740 1646 1730 1665 1742 1727 1721 1708 1751 1731 1745 1731 1813 1675 1848 1758 1805 1724 1800 1737 1697 1754 1751 1738 1782 1662 1744 1725 1747 1707 1801 1849 1784 1798 1761 1817 1747 1759 1767 1754 1796 1760 1737 1759 1817 1804 1775 1745 1741 1813 1839 1761 1748 1782 1733 1789 1826 1772 1788 1750 1772 1742 1729 1769 1784 1785 1800 1825 1810 1745 1787 1758 1732 1753 1777 1840 1813 1801 1804 1767 1800 1851 1875 1760 1809 1793 1855 1760 1861 1828 1875 1845 1892 1822 1846 1810 1879 1796 1809 1761 1756 1836 1814 1865 1833 1812 1854 1798 1784 1769 1781 1842 1829 1781 1808 1793 1804 1752 1856 1823 1809 1874 1847 1833 1806 1808 1854 1919 1772 1848 1820 1898 1812 1876 1820 1893 1829 1821 1863 1898 1915 1874 1844 1857 1837 1790 1814 1851 1833 1857 1830 1831 1880 1811 1871 1870 1901 1878 1827 1876 1826 1779 1863 1874 1892 1879 1767 1907 1812 1902 1883 1816 1808 1906 1838 1805 1892 1872 1847 1902 1898 1826 1886 1936 1794 1946 1930 1846 1891 1874 1896 1815 1825 1879 1927 1849 1853 1818 1837 1844 1803 1798 1852 1835 1881 1902 1841 1795 1941 1834 1961 1927 1901 1966 1921 1875 1886 1875 1902 1802 1820 1851 1889 1886 1910 1946 1796 1933 1939 1920 1897 1893 1908 1901 1979 1878 2001 1901 1875 1928 1884 1890 1869 1987 1949 1831 1969 1920 1883 1900 1972 1905 1933 1958 1858 1989 2029 1971 1961 1930 1804 2000 1916 1932 1937 1934 1895 1970 2004 2037 2031 1999 1969 1949 1966 1985 1972 1970 2035 2049 2092 1984 1981 2097 2181 2207 2141 2333 2356 2532 2714 2845 3037 3138 3086 2984 2946 2907 2961 2965 3146 3448 3942 4496 5022 6206 7543 6957 5420 4771 4866 4700 3942 3166 2852 2545 2428 2436 2351 2202 2223 2206 2099 2168 2063 2103 2123 2000 2039 2090 2036 2043 2016 2019 2019 1965 2019 2062 1977 1930 2001 2028 2009 2031 1953 1926 1963 2007 2004 2019 1974 1922 2021 1971 1969 1977 1950 2030 1876 1933 1926 1927 1906 2015 1975 2040 2002 2066 1951 2028 1917 1949 1956 2081 1992 1972 1971 2035 2085 2027 2006 2016 1935 2044 1965 1961 1940 1930 2017 1994 2039 2047 1949 2018 1965 1978 1977 2020 1956 1998 2026 1986 1902 1856 2051 1989 1862 1923 2028 1989 1992 2039 1986 1970 2033 1994 1895 2057 2143 2052 2037 2034 1926 1906 2018 2000 1982 1974 2029 1962 1997 1945 2077 2067 1979 1966 2041 1956 1987 2061 1960 2115 1920 2012 2020 2004 1930 1980 1990 1998 1987 2004 1960 2014 1984 2003 2012 1952 1966 1952 1967 1999 2074 1986 2018 1929 1966 2018 2097 2086 1985 1988 1993 2077 2059 1963 1958 1981 2107 2009 2015 2039 2060 2044 2064 2055 2088 1942 2055 1948 2013 2014 2008 2027 2029 2026 2055 1968 2066 2144 1975 2013 2030 2039 2034 2024 2065 1915 1989 2111 2030 2061 2077 2097 2041 2082 2093 2137 2015 2112 2119 2050 2107 2100 2080 2066 2066 2056 2028 2065 2042 2021 2073 2026 2149 2066 2068 2056 2027 2061 2080 2112 2055 2102 2105 2082 2076 2242 2178 2106 2135 2156 2139 2181 2258 2214 2239 2324 2400 2358 2510 2604 2540 2632 2800 2742 2795 2649 2733 2793 2902 2857 2935 3104 3248 3333 3435 3710 3861 3966 4037 3916 3656 3433 3293 3130 3125 2804 2732 2484 2392 2361 2359 2319 2189 2252 2227 2114 2164 2155 2136 2137 2140 2163 2139 2044 2034 2003 2121 2037 2028 2055 2092 2042 2137 2041 2059 2062 2083 2076 2073 2144 2078 2041 2058 2099 2133 1982 2057 2073 2029 2069 1979 2045 2044 2068 2007 2014 2120 2074 2060 2019 2118 2047 2105 2057 2068 2058 2023 2074 2083 2036 1992 1985 1998 2080 2028 2075 1973 2117 2040 2077 1996 1988 2116 2054 2109 2077 1999 2022 1986 2072 2130 2077 2035 1982 2090 2049 2040 2092 2061 2076 2112 2073 2118 2066 2025 2030 2093 2033 2018 2080 2079 2071 2080 2021 2037 2087 2119 2148 2053 2045 2028 2016 2205 2201 2034 2061 2054 2135 2027 2062 2062 2149 2053 2041 2085 2130 2152 2084 2016 2100 2102 2117 2074 2054 2085 2076 2032 2095 2103 2105 2128 2063 2097 2054 2140 2096 2136 2098 2066 2067 2110 2143 2088 2107 2098 2096 2050 2109 2156 2189 2124 2194 2103 2125 2079 2099 2142 2135 2135 2152 2073 2054 2129 2062 2098 2071 2065 2148 2089 2114 2141 2097 2110 2145 2110 2155 2086 2180 2162 2075 2105 2034 2116 2088 2175 2168 2140 2182 2184 2039 2176 2089 2190 2050 2142 2155 2170 2065 2081 2146 2134 2085 2123 2181 2174 2090 2088 2112 2242 2141 2131 2103 2010 2196 2183 2158 2221 2173 2083 2169 2148 2183 2127 2164 2186 2208 2114 2206 2167 2152 2172 2029 2204 2150 2114 2167 2136 2147 2090 2197 2152 2154 2134 2189 2172 2130 2111 2185 2149 2211 2152 2108 2177 2194 2091 2168 2186 2171 2111 2170 2116 2109 2109 2180 2188 2141 2145 2179 2262 2158 2190 2196 2132 2138 2166 2090 2189 2192 2317 2131 2107 2153 2171 2175 2190 2217 2192 2213 2093 2139 2063 2140 2097 2148 2168 2220 2179 2063 2164 2155 2168 2133 2104 2121 2090 2212 2240 2160 2193 2097 2108 2097 2189 2231 2165 2184 2148 2213 2250 2214 2191 2246 2251 2166 2190 2129 2226 2242 2162 2225 2165 2244 2144 2125 2136 2159 2093 2151 2171 2161 2130 2210 2263 2199 2162 2182 2287 2177 2145 2178 2181 2204 2200 2187 2084 2204 2211 2168 2258 2144 2171 2204 2231 2092 2213 2130 2209 2152 2231 2113 2094 2223 2170 2267 2278 2244 2183 2190 2267 2232 2240 2256 2195 2196 2274 2214 2199 2166 2201 2168 2296 2245 2262 2216 2140 2121 2185 2152 2225 2259 2210 2242 2229 2159 2254 2208 2220 2188 2164 2238 2177 2322 2175 2230 2120 2215 2183 2228 2229 2264 2135 2225 2232 2138 2189 2159 2236 2241 2242 2236 2102 2135 2307 2159 2221 2149 2219 2178 2287 2151 2184 2242 2243 2203 2282 2207 2206 2287 2177 2236 2133 2292 2209 2254 2212 2201 2162 2259 2314 2173 2179 2240 2242 2155 2306 2217 2320 2283 2160 2188 2230 2143 2113 2184 2183 2303 2318 2205 2216 2325 2284 2196 2189 2204 2267 2220 2263 2275 2235 2170 2220 2258 2265 2138 2213 2194 2205 2304 2161 2247 2187 2253 2214 2164 2232 2222 2222 2276 2304 2275 2315 2244 2220 2245 2225 2195 2210 2159 2277 2256 2217 2221 2211 2181 2270 2274 2251 2237 2226 2177 2251 2283 2247 2207 2179 2178 2175 2196 2166 2289 2265 2294 2310 2149 2251 2204 2206 2164 2156 2241 2298 2188 2181 2179 2158 2199 2240 2205 2252 2295 2232 2266 2167 2200 2302 2282 2265 2228 2184 2232 2247 2271 2187 2306 2329 2311 2263 2268 2259 2175 2221 2234 2263 2323 2227 2274 2224 2284 2234 2222 2216 2341 2271 2244 2368 2251 2253 2334 2236 2291 2255 2319 2350 2147 2241 2304 2274 2277 2233 2290 2268 2236 2220 2227 2332 2220 2292 2281 2288 2234 2237 2226 2188 2238 2252 2276 2282 2247 2232 2260 2325 2298 2329 2300 2272 2289 2284 2357 2369 2286 2342 2308 2261 2200 2275 2288 2283 2245 2198 2204 2267 2252 2249 2242 2284 2249 2307 2357 2264 2271 2276 2284 2248 2324 2324 2294 2252 2342 2278 2285 2238 2278 2262 2348 2246 2205 2303 2343 2320 2269 2291 2293 2319 2231 2314 2228 2223 2284 2313 2325 2382 2266 2335 2241 2312 2283 2370 2250 2311 2227 2257 2250 2232 2310 2300 2339 2299 2315 2286 2351 2273 2274 2244 2332 2312 2296 2285 2349 2348 2285 2292 2307 2318 2293 2263 2316 2246 2291 2314 2295 2350 2213 2295 2303 2288 2279 2378 2255 2344 2232 2266 2275 2347 2260 2281 2352 2258 2286 2192 2273 2314 2322 2321 2234 2279 2359 2325 2246 2388 2265 2304 2325 2274 2359 2321 2415 2245 2324 2252 2334 2325 2324 2301 2340 2213 2390 2388 2366 2207 2317 2408 2348 2300 2330 2215 2256 2248 2322 2297 2261 2260 2407 2321 2324 2311 2377 2313 2341 2345 2293 2368 2288 2261 2334 2284 2341 2337 2375 2247 2352 2377 2357 2284 2400 2239 2240 2318 2298 2350 2350 2378 2334 2291 2342 2325 2344 2344 2325 2349 2325 2302 2321 2378 2239 2245 2350 2314 2327 2373 2264 2360 2385 2248 2324 2470 2345 2381 2459 2343 2438 2403 2493 2500 2431 2517 2531 2514 2517 2635 2682 2780 2967 3016 3219 3286 3344 3343 3428 3382 3234 3215 3199 3150 3142 3294 3282 3202 3258 3176 3183 3111 3221 3309 3462 3581 3716 3996 4372 4811 5513 6234 7175 7835 8142 7334 6254 5613 5251 5125 5337 5787 5772 5306 4511 4022 3671 3542 3174 3099 2985 2982 2867 2766 2656 2605 2599 2539 2494 2582 2519 2449 2489 2445 2372 2375 2524 2403 2372 2400 2459 2348 2357 2423 2364 2386 2349 2398 2461 2406 2329 2385 2307 2366 2289 2306 2364 2347 2275 2351 2345 2425 2465 2286 2294 2419 2396 2393 2350 2374 2369 2330 2416 2354 2293 2333 2402 2378 2307 2351 2289 2389 2416 2359 2255 2439 2378 2296 2334 2372 2308 2403 2343 2359 2304 2284 2365 2417 2403 2395 2364 2418 2302 2305 2376 2339 2288 2296 2226 2388 2450 2263 2309 2323 2306 2335 2374 2450 2330 2369 2346 2301 2338 2214 2387 2304 2375 2419 2380 2360 2250 2437 2337 2333 2337 2335 2287 2305 2335 2337 2431 2313 2360 2300 2418 2204 2335 2321 2311 2337 2355 2366 2328 2352 2325 2296 2284 2323 2278 2363 2416 2277 2260 2355 2284 2361 2304 2271 2374 2401 2411 2327 2243 2395 2322 2259 2311 2358 2397 2305 2400 2289 2249 2393 2335 2274 2356 2388 2428 2316 2266 2311 2329 2343 2259 2420 2455 2363 2370 2403 2331 2370 2335 2270 2399 2280 2412 2378 2361 2364 2309 2269 2268 2273 2420 2279 2318 2355 2422 2355 2399 2393 2242 2323 2356 2241 2393 2313 2320 2346 2330 2329 2325 2386 2311 2367 2253 2338 2376 2323 2323 2350 2387 2291 2352 2365 2290 2350 2433 2362 2365 2287 2362 2320 2381 2432 2289 2359 2339 2410 2279 2355 2362 2398 2353 2315 2327 2329 2331 2336 2333 2279 2407 2342 2328 2325 2471 2260 2332 2321 2253 2408 2431 2227 2364 2286 2322 2387 2332 2390 2353 2322 2370 2372 2288 2427 2259 2322 2321 2381 2297 2406 2351 2344 2382 2336 2413 2352 2375 2462 2339 2391 2415 2244 2403 2395 2384 2360 2421 2413 2299 2248 2326 2275 2303 2445 2441 2387 2272 2372 2301 2282 2286 2295 2348 2236 2409 2352 2270 2296 2340 2342 2359 2313 2314 2344 2388 2328 2360 2326 2358 2267 2372 2342 2418 2325 2327 2312 2409 2393 2327 2376 2365 2301 2401 2350 2328 2299 2411 2329 2412 2292 2482 2288 2302 2441 2446 2440 2404 2386 2394 2357 2402 2444 2424 2463 2347 2378 2393 2342 2360 2355 2364 2428 2393 2336 2507 2432 2350 2395 2274 2392 2410 2306 2395 2426 2376 2335 2353 2366 2424 2426 2391 2431 2439 2421 2313 2400 2329 2291 2433 2457 2445 2469 2342 2443 2384 2466 2401 2315 2342 2369 2417 2438 2356 2338 2451 2390 2415 2381 2421 2320 2394 2318 2342 2357 2407 2361 2393 2484 2473 2405 2356 2446 2368 2359 2447 2416 2501 2445 2407 2426 2439 2487 2370 2453 2376 2340 2399 2377 2436 2373 2447 2445 2404 2377 2372 2430 2378 2338 2431 2357 2401 2340 2332 2341 2365 2405 2314 2365 2430 2393 2369 2364 2305 2394 2430 2336 2418 2439 2417 2336 2369 2371 2437 2441 2427 2393 2401 2466 2445 2419 2403 2394 2307 2353 2303 2463 2486 2454 2417 2318 2331 2436 2440 2406 2273 2383 2357 2340 2467 2399 2368 2399 2485 2334 2382 2397 2466 2385 2346 2367 2397 2391 2463 2336 2468 2454 2448 2418 2397 2449 2484 2382 2301 2330 2347 2446 2421 2342 2346 2450 2324 2369 2355 2484 2447 2402 2480 2397 2487 2431 2458 2374 2573 2435 2550 2508 2523 2477 2578 2618 2467 2647 2528 2566 2546 2579 2632 2587 2458 2527 2561 2502 2512 2589 2535 2586 2654 2570 2478 2545 2634 2600 2630 2650 2691 2634 2671 2683 2650 2825 2884 3036 3102 3113 3091 3092 2810 2912 2695 2705 2671 2674 2766 2795 2741 2822 2738 2699 2747 2563 2557 2442 2502 2514 2440 2444 2461 2387 2487 2419 2416 2392 2392 2446 2409 2433 2390 2445 2392 2390 2401 2398 2402 2380 2352 2338 2482 2414 2376 2445 2519 2335 2364 2334 2391 2440 2410 2404 2488 2420 2392 2431 2379 2392 2434 2412 2523 2351 2492 2477 2481 2485 2342 2450 2419 2403 2420 2409 2450 2463 2279 2395 2400 2431 2347 2429 2328 2438 2410 2375 2385 2474 2480 2380 2352 2379 2389 2440 2425 2354 2398 2394 2397 2401 2327 2373 2443 2429 2417 2400 2435 2338 2397 2420 2347 2346 2414 2399 2385 2439 2392 2384 2477 2352 2409 2385 2407 2451 2464 2398 2413 2397 2425 2427 2388 2411 2418 2394 2369 2368 2380 2407 2417 2385 2459 2388 2480 2357 2453 2451 2459 2354 2412 2425 2418 2376 2428 2404 2439 2391 2383 2373 2496 2521 2484 2488 2498 2428 2418 2433 2531 2363 2419 2379 2380 2413 2353 2361 2487 2447 2497 2425 2436 2471 2461 2433 2371 2469 2454 2392 2344 2426 2476 2512 2464 2426 2482 2471 2469 2478 2415 2357 2502 2579 2476 2382 2560 2593 2470 2502 2387 2440 2495 2496 2526 2468 2417 2436 2471 2515 2480 2464 2461 2439 2404 2469 2318 2450 2388 2380 2312 2521 2405 2423 2480 2436 2402 2475 2391 2424 2379 2458 2472 2466 2467 2428 2437 2383 2369 2381 2449 2397 2447 2419 2447 2409 2310 2523 2406 2433 2440 2390 2430 2374 2475 2368 2329 2433 2468 2352 2457 2459 2321 2384 2401 2448 2418 2408 2443 2311 2423 2395 2410 2413 2412 2473 2396 2412 2390 2358 2390 2499 2418 2471 2458 2501 2417 2406 2405 2450 2371 2364 2385 2531 2334 2342 2360 2508 2458 2400 2438 2430 2302 2410 2439 2370 2441 2376 2412 2446 2449 2377 2453 2395 2402 2342 2446 2388 2494 2469 2461 2396 2422 2334 2399 2370 2391 2421 2477 2429 2282 2419 2465 2438 2342</intensities>
			</dataPoints>
		</scan>
	</xrdMeasurement>
</xrdMeasurements>
