<?xml version="1.0" encoding="UTF-8"?>
<xrdMeasurements xmlns="http://www.xrdml.com/XRDMeasurement/1.5" xmlns:xsi="http://www.w3.org/2001/XMLSchema-instance" xsi:schemaLocation="http://www.xrdml.com/XRDMeasurement/1.5 http://www.xrdml.com/XRDMeasurement/1.5/XRDMeasurement.xsd" status="Completed">
	<comment>
		<entry>Program made during training, refer to manual.</entry>
		<entry>Configuration=Reflection-transmission spinner, Owner=User-1, Creation date=12/4/2012 10:13:13 AM</entry>
		<entry>Goniometer=Theta/Theta; Minimum step size 2Theta:0.0001; Minimum step size Omega:0.0001</entry>
		<entry>Sample stage=Reflection-transmission spinner; Minimum step size Phi:0.1</entry>
		<entry>Diffractometer system=EMPYREAN</entry>
		<entry>Measurement program=Z:\Z Drive XRD Data\Nicholas Derimow\20-100-40s_fast_spin.xrdmp, Identifier={4CA263F6-2731-4F25-A6B7-6F42DD54A9D9}</entry>
	</comment>
	<sample type="To be analyzed">
		<id></id>
		<name></name>
		<preparedBy></preparedBy>
	</sample>
	<xrdMeasurement measurementType="Scan" status="Completed" sampleMode="Reflection">
		<comment>
			<entry/>
		</comment>
		<usedWavelength intended="K-Alpha 1">
			<kAlpha1 unit="Angstrom">1.5405980</kAlpha1>
			<kAlpha2 unit="Angstrom">1.5444260</kAlpha2>
			<kBeta unit="Angstrom">1.3922500</kBeta>
			<ratioKAlpha2KAlpha1>0.5000</ratioKAlpha2KAlpha1>
		</usedWavelength>
		<incidentBeamPath>
			<radius unit="mm">240.00</radius>
			<xRayTube id="1010041" name="Empyrean Cu LFF (9430 033 7300x) DK412263">
				<tension unit="kV">45</tension>
				<current unit="mA">40</current>
				<anodeMaterial>Cu</anodeMaterial>
				<focus type="Line">
					<length unit="mm">12.0</length>
					<width unit="mm">0.4</width>
					<takeOffAngle unit="deg">6.0</takeOffAngle>
				</focus>
			</xRayTube>
			<sollerSlit id="21010002" name="Soller slits 0.04 rad.">
				<opening unit="rad">0.0400</opening>
			</sollerSlit>
			<mask id="22080002" name="Fixed incident beam mask 10 mm">
				<distanceToSample unit="mm">8.00</distanceToSample>
				<width unit="mm">6.60</width>
			</mask>
			<antiScatterSlit id="22010003" name="Fixed slit 1°" xsi:type="fixedAntiScatterSlitType">
				<height unit="mm">1.52</height>
			</antiScatterSlit>
			<divergenceSlit id="22010004" name="Fixed slit 1/2°" xsi:type="fixedDivergenceSlitType">
				<distanceToSample unit="mm">140.00</distanceToSample>
				<height unit="mm">0.76</height>
			</divergenceSlit>
		</incidentBeamPath>
		<sampleMovement xsi:type="spinningSampleMovementType">
			<spinnerRevolutionTime unit="seconds">0.5</spinnerRevolutionTime>
		</sampleMovement>
		<diffractedBeamPath>
			<radius unit="mm">240.00</radius>
			<antiScatterSlit id="22090010" name="AS slit 8.0 mm (PIXcel)" xsi:type="fixedAntiScatterSlitType">
				<height unit="mm">8.00</height>
			</antiScatterSlit>
			<sollerSlit id="21020003" name="Large Soller slits 0.04 rad.">
				<opening unit="rad">0.0400</opening>
			</sollerSlit>
			<filter id="20030001" name="Large beta-filter Nickel">
				<material>Ni</material>
				<thickness unit="mm">0.020</thickness>
			</filter>
			<detector id="7010015" name="PIXcel1D detector" xsi:type="rtmsDetectorType">
				<phd>
					<lowerLevel unit="%">25.0</lowerLevel>
					<upperLevel unit="%">70.0</upperLevel>
				</phd>
				<mode>Scanning</mode>
				<activeLength unit="deg">3.3473</activeLength>
			</detector>
		</diffractedBeamPath>
		<scan appendNumber="0" mode="Continuous" scanAxis="Gonio" status="Completed">
			<header>
				<startTimeStamp>2018-02-16T11:19:45-08:00</startTimeStamp>
				<endTimeStamp>2018-02-16T11:27:59-08:00</endTimeStamp>
				<author>
					<name>msexrd</name>
				</author>
				<source>
					<applicationSoftware version="4.1">Data Collector</applicationSoftware>
					<instrumentControlSoftware version="7.6 ">EMPYREAN</instrumentControlSoftware>
					<instrumentID>0000000011134078</instrumentID>
				</source>
			</header>
			<dataPoints>
				<positions axis="2Theta" unit="deg">
					<startPosition>20.02343028</startPosition>
					<endPosition>99.98685073</endPosition>
				</positions>
				<positions axis="Omega" unit="deg">
					<startPosition>10.01171514</startPosition>
					<endPosition>49.99342537</endPosition>
				</positions>
				<positions axis="Phi" unit="deg">
					<commonPosition>250.5</commonPosition>
				</positions>
				<commonCountingTime unit="seconds">36.465</commonCountingTime>
				<intensities unit="counts">1287 1323 1258 1392 1316 1313 1321 1409 1282 1369 1331 1278 1310 1410 1289 1354 1389 1325 1352 1319 1331 1374 1279 1383 1376 1378 1305 1302 1270 1383 1314 1414 1346 1374 1321 1279 1315 1345 1362 1338 1318 1412 1385 1350 1376 1301 1395 1366 1401 1341 1343 1417 1330 1310 1328 1356 1330 1326 1318 1363 1325 1358 1389 1355 1370 1401 1390 1307 1394 1379 1384 1373 1344 1375 1337 1345 1334 1346 1380 1361 1342 1378 1357 1347 1388 1328 1323 1385 1313 1405 1438 1329 1340 1360 1334 1393 1398 1336 1404 1351 1341 1301 1339 1338 1288 1397 1342 1360 1372 1350 1292 1457 1389 1399 1365 1438 1402 1399 1400 1377 1424 1337 1376 1346 1327 1352 1380 1326 1387 1439 1458 1331 1387 1395 1363 1360 1457 1374 1321 1424 1356 1352 1360 1318 1358 1328 1310 1354 1410 1429 1393 1392 1330 1366 1418 1374 1356 1391 1346 1286 1362 1385 1366 1385 1351 1302 1383 1319 1411 1439 1372 1367 1398 1338 1399 1385 1403 1318 1436 1379 1439 1399 1413 1345 1436 1355 1383 1351 1328 1384 1388 1395 1374 1351 1407 1349 1401 1425 1361 1407 1447 1386 1331 1448 1398 1419 1422 1387 1415 1390 1385 1482 1303 1389 1404 1412 1350 1454 1414 1410 1391 1347 1386 1395 1409 1422 1434 1391 1412 1405 1383 1426 1410 1433 1367 1429 1402 1437 1416 1458 1391 1312 1512 1448 1404 1442 1402 1427 1427 1470 1440 1450 1488 1402 1434 1327 1430 1434 1441 1430 1470 1459 1426 1421 1395 1449 1460 1471 1475 1440 1414 1499 1488 1518 1433 1487 1455 1398 1449 1418 1409 1418 1421 1423 1474 1473 1519 1507 1481 1450 1466 1459 1397 1387 1459 1422 1533 1486 1466 1502 1410 1449 1404 1490 1478 1425 1387 1416 1434 1401 1396 1424 1454 1479 1448 1488 1385 1461 1510 1433 1459 1495 1469 1498 1443 1494 1509 1530 1506 1478 1497 1449 1501 1533 1640 1565 1582 1601 1604 1572 1536 1556 1471 1422 1465 1371 1428 1467 1499 1475 1434 1444 1504 1417 1497 1464 1542 1505 1524 1539 1522 1564 1443 1525 1435 1519 1466 1449 1472 1528 1580 1461 1503 1374 1472 1541 1502 1470 1542 1490 1480 1534 1557 1496 1488 1512 1463 1505 1470 1595 1508 1475 1571 1535 1480 1478 1478 1509 1599 1432 1493 1515 1535 1539 1491 1563 1520 1487 1543 1476 1579 1498 1497 1552 1528 1549 1513 1509 1488 1602 1479 1558 1581 1523 1482 1495 1460 1549 1576 1517 1471 1470 1561 1558 1476 1547 1555 1475 1501 1534 1487 1503 1546 1534 1583 1475 1518 1591 1510 1529 1472 1570 1521 1515 1575 1647 1537 1536 1615 1564 1497 1569 1498 1485 1554 1539 1560 1552 1548 1580 1509 1525 1523 1539 1551 1542 1528 1576 1535 1538 1485 1459 1586 1562 1610 1529 1546 1588 1551 1603 1536 1479 1485 1558 1601 1608 1599 1672 1453 1508 1618 1534 1569 1577 1650 1499 1534 1517 1637 1560 1627 1602 1525 1592 1489 1548 1581 1670 1576 1646 1583 1526 1577 1597 1530 1628 1535 1579 1563 1586 1537 1550 1559 1576 1506 1520 1531 1548 1607 1513 1603 1595 1558 1597 1602 1641 1610 1589 1611 1536 1640 1651 1619 1653 1620 1587 1656 1559 1621 1541 1559 1590 1482 1617 1588 1636 1629 1618 1560 1579 1635 1566 1626 1609 1563 1621 1643 1651 1567 1589 1530 1656 1620 1686 1569 1559 1647 1591 1657 1623 1593 1599 1630 1625 1674 1629 1591 1623 1623 1584 1634 1644 1580 1559 1595 1621 1648 1592 1701 1587 1638 1698 1641 1655 1621 1598 1670 1596 1668 1638 1588 1648 1643 1683 1638 1639 1650 1658 1575 1669 1634 1552 1584 1571 1669 1677 1615 1656 1649 1633 1610 1673 1606 1656 1631 1659 1607 1649 1639 1645 1644 1722 1597 1719 1627 1764 1660 1718 1642 1716 1733 1686 1643 1623 1682 1694 1701 1687 1688 1621 1665 1630 1639 1651 1698 1657 1735 1606 1688 1655 1603 1651 1619 1614 1703 1688 1605 1630 1677 1621 1688 1667 1670 1664 1635 1718 1643 1702 1758 1672 1604 1714 1731 1673 1628 1710 1708 1634 1680 1655 1673 1642 1619 1756 1794 1743 1724 1684 1637 1648 1736 1789 1676 1780 1623 1695 1707 1703 1628 1669 1654 1688 1664 1695 1682 1708 1712 1707 1800 1720 1732 1736 1721 1654 1760 1670 1666 1718 1719 1752 1796 1778 1722 1709 1662 1735 1714 1732 1772 1732 1679 1714 1741 1766 1713 1725 1766 1677 1702 1685 1648 1730 1607 1766 1741 1690 1763 1772 1680 1724 1737 1672 1722 1739 1754 1687 1775 1716 1743 1720 1745 1719 1719 1703 1725 1776 1734 1750 1695 1704 1668 1747 1741 1746 1715 1743 1734 1744 1722 1648 1694 1731 1633 1746 1757 1673 1821 1759 1803 1747 1764 1768 1745 1698 1740 1746 1764 1719 1810 1726 1847 1798 1765 1755 1827 1722 1701 1708 1736 1705 1722 1728 1746 1771 1741 1799 1790 1661 1763 1841 1777 1876 1717 1727 1693 1810 1781 1800 1734 1837 1849 1785 1837 1882 1866 1806 1903 1794 1800 1786 1853 1848 1819 1839 1782 1756 1881 1879 1943 1905 1933 2002 2062 2172 2166 2303 2495 2708 2903 3123 2965 2827 2813 2796 2661 2730 2642 2494 2654 2705 3033 3372 3891 4518 5042 5135 4716 4484 4412 4002 3630 3149 2865 2624 2461 2321 2136 2140 2004 2050 2058 1970 1961 1883 1979 1894 1903 1809 1937 1780 1793 1823 1855 1925 1840 1823 1802 1875 1863 1772 1858 1816 1948 1845 1763 1853 1827 1835 1860 1836 1808 1938 1800 1888 1747 1827 1835 1812 1833 1847 1910 1822 1745 1779 1831 1902 1774 1799 1844 1805 1891 1804 1795 1751 1794 1783 1919 1922 1901 1868 1763 1952 1961 1851 1899 1780 1856 1834 1816 1778 1793 1868 1871 1795 1817 1781 1888 1899 1786 1914 1822 1889 1892 1780 1850 1805 1847 1771 1816 1842 1797 1900 1811 1791 1898 1792 1830 1793 1935 1869 1812 1887 1842 1847 1896 1889 1918 2001 1844 1841 1849 1913 1901 1908 1782 1784 1864 1881 1855 1842 1835 1882 1783 1819 1854 1809 1857 1864 1889 1851 1830 1827 1829 1804 1859 1911 1918 1842 1970 1855 1889 1912 1867 1858 1832 1897 1890 1914 1889 1854 1851 1913 1891 1920 1906 1863 1897 1846 1847 1915 1859 1835 1885 1864 1812 1901 1844 1889 1927 1854 1861 1865 1815 1846 1929 1916 1860 1925 1879 1870 1957 1891 1886 1928 1931 1925 1964 1943 2019 1903 1911 1988 1993 2106 2025 2023 2010 1977 2070 2108 2056 2045 1964 1993 2012 2060 2072 2020 2119 2095 2110 2047 2161 2041 2104 2075 2260 2280 2290 2316 2403 2488 2522 2573 2653 2706 2904 2889 2877 3010 3037 3088 3185 3364 3551 3733 4168 4783 5590 6708 8260 9783 9914 8564 7232 7097 7651 7682 7085 6519 6525 7238 8318 10297 13289 17103 22918 28966 33745 36271 35921 33550 30382 27587 25186 21919 18277 13982 10923 8513 6794 5437 4567 4001 3496 3230 3004 2886 2733 2627 2471 2358 2253 2271 2211 2157 2194 2124 2201 2160 2162 2182 2102 2103 1961 2066 2078 2020 2116 2097 2000 2085 2023 2061 1990 2072 2038 1961 1976 2052 2022 2024 1970 1924 2022 1988 1949 2011 1910 1965 1913 2001 1951 1948 2006 1913 1923 2003 1923 1961 2014 1942 1882 1914 1961 1928 1934 1994 1860 1978 1966 1915 1877 1952 1952 1984 2011 2004 1896 2144 1933 1980 1916 1938 1943 1995 1979 1926 1921 1950 1904 1965 1949 1918 1955 1940 2061 1943 2082 1944 1968 1976 1985 1985 1966 1960 1969 2049 1969 2042 1987 1974 1942 1978 1976 2028 1994 1976 1977 1970 1958 2053 1988 1966 2018 1942 2005 1968 1985 2015 1935 1983 2007 1980 1990 1930 1995 2011 2000 1958 2056 2030 1997 2025 2058 1964 1939 2018 1989 2029 1957 2047 2136 1987 2058 1977 1970 1972 1950 2003 2059 1986 2032 2020 1922 1886 2041 1951 1967 1965 2010 2042 2077 2047 1985 1961 2050 2019 1963 2000 2039 2013 1972 2045 2006 1979 2028 2034 2014 2024 1993 1959 1965 1900 2011 1965 2030 1997 2109 2065 1978 2004 1997 1986 2025 1907 2049 2015 1992 1962 1991 2007 1969 2033 2037 1960 1959 1960 1985 2104 2012 1952 2060 2030 1980 1950 1981 1888 2014 2046 1991 2003 2014 2013 1941 2066 2036 1957 1954 1991 1966 2023 2023 1981 2101 2019 1972 2000 2022 1978 2048 2061 1965 2107 1965 1972 1978 1961 2123 1970 2075 2030 2049 1982 2024 2050 2009 2030 2032 1961 2066 2061 2031 2069 2071 2090 2061 2070 2111 2034 2062 2131 2019 2069 2072 2114 1962 2013 1955 2047 2059 2046 2035 2010 2066 1969 2103 2009 2058 1994 2076 1996 2029 2052 2035 2064 2044 2055 2021 2029 2005 2061 2068 2137 2047 2020 1975 2008 2069 1988 2107 2018 2017 2000 2021 1983 2053 2102 2032 2041 2137 2051 1946 2041 2076 1997 2040 2009 2046 2013 2078 2161 2067 2113 2060 1974 2031 1975 2113 2021 1990 2064 2027 2128 2108 2021 1972 2043 2080 2041 2041 1953 2075 2015 2028 2090 1986 2146 2037 1973 2047 2071 2088 1994 1994 2075 2051 2058 2098 2075 2061 2097 2012 2044 2062 2139 2054 2110 2002 2131 2142 2051 2073 2057 2014 2082 2054 2076 2098 2090 2039 2049 2025 2040 2039 2116 2136 1981 2074 2111 2084 2139 2013 2074 2059 2082 2128 2160 2114 2092 2106 2022 2033 2000 2152 2191 2081 2081 1946 2068 2079 2125 2088 2074 2049 2108 2071 2072 2054 2039 2017 2052 1999 2113 2041 2101 2128 2029 2064 2101 2132 2068 2006 2000 2088 2134 2099 2018 2124 2054 2103 2090 2089 2084 2064 2107 2051 2068 2049 2116 2005 2048 2051 2036 2029 1964 2098 2055 2061 2108 2116 2004 2036 2094 2007 2113 2071 2106 2136 2078 2011 2024 2074 2010 2053 2077 2117 2065 2147 2013 2067 2050 2078 2157 2078 2083 2077 2121 2082 2124 2129 2025 2002 2199 2088 2091 1972 2063 2092 2034 2069 2104 2178 2118 2113 1995 2046 2044 2060 1965 2051 2071 2088 2054 2094 2023 2109 2107 2120 2115 2153 2040 2078 2049 2059 2091 2169 2078 2045 2115 2055 2151 2019 2005 2115 2048 2095 2038 2063 2051 2138 2055 2110 2101 2120 2108 2108 2057 2110 2109 2055 1996 2104 2099 1995 2072 2043 2139 2110 2025 1971 2122 2000 2077 2017 2070 2038 1991 2124 2095 2124 2077 2128 2102 2082 2161 2189 2159 2085 1983 2057 2043 1932 2159 2037 2050 2018 2122 2005 1985 2074 2049 2036 2031 2090 2068 2080 2104 2028 2025 2039 2116 2089 2071 2097 2105 2109 2061 2006 2017 2011 2038 2057 2031 2028 2017 2054 2057 2060 2136 2003 2080 1982 2073 2074 2035 2057 1984 2109 2186 2111 2037 2061 2060 1994 2086 1984 2011 2053 2113 2084 2160 2086 2092 2091 2109 2009 2106 1982 2040 2064 2133 2086 2141 2074 2043 2105 2120 1961 2171 2011 2003 2094 2170 2100 2117 2095 2015 2108 2074 2081 2104 1989 2148 1990 2085 2140 2057 2025 2161 2211 2123 2089 2069 2107 2087 2073 2182 2056 2072 1993 2063 2068 2112 2060 2103 2108 2045 2098 2046 2099 2160 2133 2088 2131 2070 2112 2115 2018 2124 2046 2131 2122 2074 2136 2182 2028 2091 2177 2140 2173 2129 2066 2017 2162 1991 2132 2100 2084 2130 2133 2145 2045 2083 2061 2183 2123 2107 2099 2160 2123 2033 2132 2142 2106 2109 2192 2144 2109 2134 2181 2096 2145 2141 2098 2106 2086 2135 1970 2132 2146 2128 2105 2184 2167 2060 2138 2109 2118 2152 2037 2158 2084 2197 2123 2183 2188 2120 2110 2121 2063 2110 2085 2142 2117 2134 2062 2097 2167 2071 2080 2127 2148 2099 2059 2069 2141 2196 2050 2111 2112 2177 2086 2189 2133 2085 2087 2075 2158 2203 2190 2125 2055 2089 2102 2167 2125 2126 2185 2146 2053 2075 2067 2097 2055 2070 2175 2109 2134 2083 2129 2154 2183 2081 2069 2020 2104 2112 2099 2111 2102 2125 2122 2151 2182 2207 2167 2183 2243 2202 2241 2180 2226 2216 2192 2211 2224 2277 2195 2263 2231 2231 2175 2254 2235 2258 2138 2184 2139 2127 2282 2215 2150 2202 2171 2165 2289 2410 2236 2322 2383 2365 2355 2448 2459 2430 2321 2261 2338 2325 2363 2364 2331 2276 2314 2309 2280 2241 2188 2193 2210 2143 2173 2132 2258 2154 2049 2123 2113 2109 2152 2134 2176 2150 2209 2099 2187 2109 2089 2134 2127 2161 2099 2081 2109 2131 2102 2152 2111 2124 2113 2116 2073 2029 2152 2137 2153 2135 2117 2168 2111 2072 2125 2056 2131 2065 2191 2084 2054 2190 2166 2119 2044 2121 2079 2107 2189 2060 2196 2020 2124 2098 2123 2147 2123 2064 2090 2083 2099 2128 2046 2126 2166 2048 2110 2135 2069 2103 2060 2154 2200 2111 2102 2026 2084 2036 2110 2104 2018 2079 2170 2150 2077 2100 2120 2182 2111 2108 2083 2140 2175 2085 2157 2153 2152 2173 2063 2088 2136 2090 2131 2040 2146 2116 2108 2123 2085 2049 2100 2143 2010 2078 2168 2171 2055 2107 2123 2137 2185 2096 2125 2142 2029 2177 2074 2134 2071 2169 2080 2075 2061 2123 2060 2135 2151 2077 2016 2156 2024 2061 2197 2146 2049 2064 2073 2124 2059 2089 2118 2112 2076 2114 2136 2164 2113 2140 2118 2111 2079 2161 2018 2137 2119 2137 2125 2165 2108 2075 2154 2091 2099 2174 2129 2190 2085 2134 2103 2047 2121 2078 2129 2100 2126 2162 2091 2074 2140 2134 2116 2040 2166 2097 2089 2102 2022 2103 2133 2192 2077 2188 1989 2140 2044 2085 2099 2141 2086 2002 2153 2199 2179 2099 2168 2173 2040 2175 2114 2197 2128 2177 2050 2216 2073 2216 2164 2132 2113 2072 2128 2198 2196 2110 2094 2073 2097 2119 2111 2140 2219 2134 2142 2131 2090 2129 2096 2086 2091 1988 2215 2153 2124 2023 2138 2173 2145 2141 2131 2092 2102 2046 2082 2096 2149 2201 2064 2091 2225 2169 2215 2095 2118 2167 2143 2160 2145 2112 2106 2227 2104 2153 2103 2168 2078 2126 2154 2064 2183 2147 2080 2108 2166 2204 2165 2167 2222 2160 2143 2094 2120 2130 2094 2107 2111 2125 2131 2111 2176 2173 2142 2094 2135 2119 2076 2084 2154 2158 2164 2146 2097 2169 2183 2089 2158 2253 2152 2080 2155 2167 2151 2186 2132 2124 2222 2181 2178 2113 2082 2180 2118 2152 2097 2110 2129 2143 2085 2217 2202 2123 2178 2102 2101 2101 2073 2100 2201 2091 2134 2157 2143 2145 2129 2138 2166 2128 2158 2163 2112 2112 2160 2132 2175 2181 2153 2042 2262 2153 2195 2084 2230 2080 2138 2110 2273 2160 2175 2108 2128 2150 2115 2151 2022 2182 2114 2149 2138 2090 2194 2208 2086 2160 2118 2180 2165 2162 2189 2125 2184 2143 2218 2165 2205 2041 2073 2164 2139 2173 2216 2073 2085 2203 2180 2183 2197 2087 2133 2222 2170 2190 2114 2165 2162 2189 2211 2115 2115 2130 2195 2172 2062 2192 2142 2152 2166 2104 2159 2108 2211 2131 2201 2147 2198 2106 2177 2092 2196 2216 2094 2200 2158 2179 2160 2151 2195 2155 2166 2122 2154 2156 2112 2170 2135 2193 2110 2191 2038 2075 2090 2182 2114 2161 2135 2184 2166 2299 2101 2178 2159 2125 2133 2150 2105 2168 2186 2100 2139 2111 2190 2220 2099 2212 2217 2130 2196 2150 2217 2169 2094 2156 2197 2227 2249 2113 2164 2199 2159 2204 2169 2151 2194 2256 2155 2146 2147 2204 2187 2276 2125 2235 2219 2269 2270 2344 2207 2209 2222 2224 2233 2268 2277 2401 2346 2269 2237 2356 2362 2334 2354 2448 2389 2443 2440 2441 2425 2379 2308 2409 2352 2389 2363 2302 2305 2294 2259 2338 2229 2264 2277 2368 2293 2356 2346 2346 2400 2339 2331 2394 2422 2528 2531 2618 2746 2789 2885 2941 3030 3042 3128 3071 3088 2998 2966 2987 2941 2801 2814 2749 2758 2741 2597 2768 2600 2660 2519 2434 2341 2452 2364 2286 2284 2271 2234 2248 2199 2169 2242 2245 2249 2118 2277 2233 2191 2156 2165 2194 2216 2213 2214 2188 2129 2158 2164 2280 2127 2163 2234 2257 2186 2103 2106 2260 2210 2136 2151 2290 2218 2220 2268 2190 2146 2241 2150 2266 2183 2218 2142 2108 2201 2137 2190 2207 2122 2245 2185 2197 2154 2152 2146 2197 2180 2223 2234 2145 2144 2104 2199 2144 2296 2244 2193 2139 2137 2263 2189 2118 2177 2184 2247 2201 2264 2221 2188 2095 2143 2215 2173 2213 2146 2146 2227 2215 2175 2236 2216 2190 2178 2277 2178 2183 2129 2313 2185 2190 2118 2284 2151 2251 2130 2213 2157 2174 2150 2173 2060 2191 2155 2091 2194 2180 2173 2166 2218 2249 2105 2294 2158 2194 2211 2181 2206 2183 2208 2258 2115 2195 2281 2179 2251 2239 2239 2198 2231 2250 2226 2228 2161 2078 2230 2295 2224 2276 2164 2204 2230 2177 2164 2183 2182 2165 2217 2283 2199 2135 2281 2152 2231 2175 2263 2285 2223 2260 2162 2295 2240 2181 2168 2178 2197 2188 2294 2154 2263 2253 2325 2333 2179 2221 2199 2292 2273 2216 2176 2302 2254 2194 2204 2287 2230 2239 2215 2206 2142 2289 2226 2124 2262 2214 2338 2272 2318 2172 2217 2253 2216 2166 2240 2204 2179 2190 2187 2207 2234 2230 2220 2245 2181 2208 2283 2134 2226 2239 2216 2208 2126 2177 2191 2187 2168 2292 2162 2326 2139 2229 2255 2255 2274 2191 2302 2254 2277 2162 2196 2244 2193 2239 2131 2218 2178 2273 2143 2264 2277 2222 2224 2202 2163 2244 2254 2230 2205 2234 2201 2255 2241 2274 2264 2162 2198 2170 2195 2175 2206 2173 2225 2171 2186 2188 2172 2278 2269 2193 2148 2177 2227 2205 2248 2259 2230 2156 2189 2257 2070 2193 2206 2198 2195 2152 2289 2262 2187 2192 2091 2211 2129 2102 2308 2267</intensities>
			</dataPoints>
		</scan>
	</xrdMeasurement>
</xrdMeasurements>
