<?xml version="1.0" encoding="UTF-8"?>
<xrdMeasurements xmlns="http://www.xrdml.com/XRDMeasurement/1.5" xmlns:xsi="http://www.w3.org/2001/XMLSchema-instance" xsi:schemaLocation="http://www.xrdml.com/XRDMeasurement/1.5 http://www.xrdml.com/XRDMeasurement/1.5/XRDMeasurement.xsd" status="Completed">
	<comment>
		<entry>Program made during training, refer to manual.</entry>
		<entry>Configuration=Reflection-transmission spinner, Owner=User-1, Creation date=12/4/2012 10:13:13 AM</entry>
		<entry>Goniometer=Theta/Theta; Minimum step size 2Theta:0.0001; Minimum step size Omega:0.0001</entry>
		<entry>Sample stage=Reflection-transmission spinner; Minimum step size Phi:0.1</entry>
		<entry>Diffractometer system=EMPYREAN</entry>
		<entry>Measurement program=Z:\Z Drive XRD Data\Nicholas Derimow\20-100-40s_fast_spin.xrdmp, Identifier={4CA263F6-2731-4F25-A6B7-6F42DD54A9D9}</entry>
	</comment>
	<sample type="To be analyzed">
		<id></id>
		<name></name>
		<preparedBy></preparedBy>
	</sample>
	<xrdMeasurement measurementType="Scan" status="Completed" sampleMode="Reflection">
		<comment>
			<entry/>
		</comment>
		<usedWavelength intended="K-Alpha 1">
			<kAlpha1 unit="Angstrom">1.5405980</kAlpha1>
			<kAlpha2 unit="Angstrom">1.5444260</kAlpha2>
			<kBeta unit="Angstrom">1.3922500</kBeta>
			<ratioKAlpha2KAlpha1>0.5000</ratioKAlpha2KAlpha1>
		</usedWavelength>
		<incidentBeamPath>
			<radius unit="mm">240.00</radius>
			<xRayTube id="1010041" name="Empyrean Cu LFF (9430 033 7300x) DK412263">
				<tension unit="kV">45</tension>
				<current unit="mA">40</current>
				<anodeMaterial>Cu</anodeMaterial>
				<focus type="Line">
					<length unit="mm">12.0</length>
					<width unit="mm">0.4</width>
					<takeOffAngle unit="deg">6.0</takeOffAngle>
				</focus>
			</xRayTube>
			<sollerSlit id="21010002" name="Soller slits 0.04 rad.">
				<opening unit="rad">0.0400</opening>
			</sollerSlit>
			<mask id="22080002" name="Fixed incident beam mask 10 mm">
				<distanceToSample unit="mm">8.00</distanceToSample>
				<width unit="mm">6.60</width>
			</mask>
			<antiScatterSlit id="22010003" name="Fixed slit 1°" xsi:type="fixedAntiScatterSlitType">
				<height unit="mm">1.52</height>
			</antiScatterSlit>
			<divergenceSlit id="22010004" name="Fixed slit 1/2°" xsi:type="fixedDivergenceSlitType">
				<distanceToSample unit="mm">140.00</distanceToSample>
				<height unit="mm">0.76</height>
			</divergenceSlit>
		</incidentBeamPath>
		<sampleMovement xsi:type="spinningSampleMovementType">
			<spinnerRevolutionTime unit="seconds">0.5</spinnerRevolutionTime>
		</sampleMovement>
		<diffractedBeamPath>
			<radius unit="mm">240.00</radius>
			<antiScatterSlit id="22090010" name="AS slit 8.0 mm (PIXcel)" xsi:type="fixedAntiScatterSlitType">
				<height unit="mm">8.00</height>
			</antiScatterSlit>
			<sollerSlit id="21020003" name="Large Soller slits 0.04 rad.">
				<opening unit="rad">0.0400</opening>
			</sollerSlit>
			<filter id="20030001" name="Large beta-filter Nickel">
				<material>Ni</material>
				<thickness unit="mm">0.020</thickness>
			</filter>
			<detector id="7010015" name="PIXcel1D detector" xsi:type="rtmsDetectorType">
				<phd>
					<lowerLevel unit="%">25.0</lowerLevel>
					<upperLevel unit="%">70.0</upperLevel>
				</phd>
				<mode>Scanning</mode>
				<activeLength unit="deg">3.3473</activeLength>
			</detector>
		</diffractedBeamPath>
		<scan appendNumber="0" mode="Continuous" scanAxis="Gonio" status="Completed">
			<header>
				<startTimeStamp>2018-02-13T13:24:33-08:00</startTimeStamp>
				<endTimeStamp>2018-02-13T13:32:48-08:00</endTimeStamp>
				<author>
					<name>msexrd</name>
				</author>
				<source>
					<applicationSoftware version="4.1">Data Collector</applicationSoftware>
					<instrumentControlSoftware version="7.6 ">EMPYREAN</instrumentControlSoftware>
					<instrumentID>0000000011134078</instrumentID>
				</source>
			</header>
			<dataPoints>
				<positions axis="2Theta" unit="deg">
					<startPosition>20.02343028</startPosition>
					<endPosition>99.98685073</endPosition>
				</positions>
				<positions axis="Omega" unit="deg">
					<startPosition>10.01171514</startPosition>
					<endPosition>49.99342537</endPosition>
				</positions>
				<positions axis="Phi" unit="deg">
					<commonPosition>129.6</commonPosition>
				</positions>
				<commonCountingTime unit="seconds">36.465</commonCountingTime>
				<intensities unit="counts">1434 1409 1387 1422 1405 1344 1317 1397 1493 1449 1361 1403 1375 1401 1399 1437 1426 1398 1398 1346 1367 1330 1457 1327 1361 1431 1404 1356 1404 1378 1406 1359 1407 1431 1365 1327 1417 1358 1423 1338 1450 1429 1323 1410 1425 1350 1438 1373 1369 1406 1360 1381 1325 1386 1383 1447 1418 1390 1406 1409 1356 1476 1430 1448 1380 1376 1329 1360 1378 1385 1391 1386 1380 1475 1407 1310 1343 1325 1435 1372 1419 1389 1435 1353 1414 1416 1441 1385 1403 1362 1359 1288 1368 1370 1367 1417 1367 1440 1389 1381 1496 1484 1447 1421 1400 1437 1377 1355 1506 1416 1365 1379 1416 1385 1397 1365 1385 1378 1361 1430 1419 1390 1443 1406 1386 1474 1404 1454 1430 1412 1428 1359 1487 1425 1403 1436 1414 1465 1362 1373 1424 1410 1462 1463 1402 1431 1414 1404 1455 1396 1435 1420 1413 1469 1407 1381 1404 1468 1434 1388 1414 1405 1450 1320 1446 1407 1400 1411 1435 1405 1443 1402 1492 1479 1429 1426 1432 1451 1442 1418 1458 1450 1435 1451 1396 1420 1358 1362 1492 1462 1384 1418 1380 1498 1479 1455 1460 1390 1391 1471 1461 1438 1440 1434 1420 1417 1448 1463 1392 1398 1461 1456 1444 1427 1479 1397 1438 1417 1425 1417 1425 1501 1500 1458 1400 1366 1427 1424 1462 1442 1436 1406 1497 1379 1400 1495 1412 1445 1391 1395 1448 1471 1432 1465 1397 1459 1430 1391 1453 1494 1444 1389 1455 1471 1453 1376 1423 1485 1401 1472 1448 1417 1498 1455 1488 1414 1458 1429 1389 1475 1509 1452 1566 1436 1466 1411 1412 1470 1395 1468 1445 1548 1469 1442 1399 1448 1467 1498 1413 1423 1447 1428 1498 1478 1409 1493 1399 1430 1457 1430 1542 1469 1473 1518 1497 1456 1468 1423 1440 1496 1487 1439 1450 1396 1399 1429 1443 1467 1414 1486 1491 1430 1487 1434 1479 1437 1484 1446 1404 1492 1432 1466 1447 1556 1500 1520 1491 1528 1498 1566 1478 1573 1461 1481 1546 1447 1498 1533 1433 1536 1478 1431 1486 1502 1497 1406 1535 1433 1519 1454 1472 1504 1492 1484 1506 1460 1489 1486 1505 1399 1504 1460 1415 1482 1570 1454 1431 1587 1444 1497 1545 1403 1474 1449 1498 1358 1470 1461 1500 1479 1433 1532 1547 1412 1440 1479 1494 1527 1497 1468 1563 1476 1510 1483 1500 1489 1437 1414 1439 1443 1475 1441 1458 1523 1530 1477 1528 1481 1455 1511 1502 1532 1538 1514 1460 1471 1484 1512 1528 1453 1511 1465 1443 1453 1515 1431 1476 1511 1502 1515 1505 1526 1478 1505 1438 1439 1565 1484 1564 1508 1457 1465 1528 1544 1529 1541 1450 1513 1534 1516 1504 1460 1509 1494 1492 1495 1520 1462 1486 1539 1525 1434 1493 1490 1491 1477 1495 1540 1517 1466 1495 1535 1485 1484 1492 1465 1516 1522 1593 1460 1543 1506 1524 1505 1495 1583 1548 1519 1541 1544 1537 1525 1469 1484 1532 1520 1539 1521 1465 1508 1619 1518 1486 1429 1589 1529 1610 1487 1522 1475 1533 1503 1555 1519 1551 1539 1486 1517 1501 1465 1521 1511 1471 1518 1470 1533 1498 1517 1527 1600 1526 1510 1507 1574 1523 1484 1452 1514 1551 1477 1524 1547 1566 1480 1501 1497 1555 1509 1551 1525 1598 1526 1545 1555 1557 1526 1560 1496 1605 1533 1521 1585 1560 1523 1534 1470 1497 1538 1579 1591 1478 1523 1545 1548 1593 1549 1530 1630 1615 1586 1572 1584 1529 1600 1575 1562 1596 1556 1530 1568 1522 1602 1576 1617 1597 1585 1523 1544 1517 1574 1538 1564 1520 1637 1503 1546 1528 1522 1539 1515 1590 1551 1517 1576 1591 1531 1581 1599 1537 1540 1557 1557 1497 1575 1566 1611 1579 1606 1553 1581 1591 1540 1623 1543 1579 1525 1606 1522 1630 1541 1638 1535 1582 1586 1575 1527 1570 1623 1586 1638 1611 1536 1596 1590 1570 1664 1566 1544 1598 1617 1580 1606 1550 1543 1619 1664 1581 1603 1498 1621 1600 1594 1551 1618 1627 1774 1589 1636 1569 1515 1568 1565 1554 1585 1587 1637 1568 1590 1644 1605 1630 1641 1604 1554 1625 1587 1584 1591 1532 1630 1576 1621 1586 1607 1580 1603 1605 1578 1621 1590 1597 1591 1582 1588 1616 1578 1532 1606 1617 1587 1639 1556 1630 1637 1656 1593 1717 1596 1682 1644 1578 1540 1622 1611 1634 1670 1596 1620 1588 1589 1621 1624 1605 1590 1594 1583 1550 1633 1606 1614 1694 1639 1592 1642 1659 1615 1574 1555 1641 1570 1619 1617 1619 1620 1598 1611 1621 1611 1659 1676 1561 1661 1608 1650 1650 1558 1676 1538 1678 1571 1579 1692 1642 1586 1653 1642 1628 1661 1571 1673 1675 1722 1593 1685 1617 1608 1643 1686 1680 1628 1632 1610 1623 1635 1653 1679 1594 1669 1672 1637 1633 1643 1683 1597 1740 1615 1699 1605 1605 1691 1714 1670 1632 1653 1682 1676 1652 1609 1662 1635 1731 1642 1597 1700 1704 1669 1674 1714 1572 1659 1685 1709 1777 1684 1726 1650 1735 1654 1755 1799 1688 1694 1767 1607 1726 1710 1665 1727 1742 1679 1665 1661 1668 1743 1809 1762 1692 1805 1760 1810 1805 1845 1861 1846 1926 2038 1986 2218 2281 2474 2710 2880 2854 2749 2665 2668 2512 2434 2442 2524 2524 2749 2883 3167 3575 4141 4471 4044 3936 3719 3693 3235 2987 2556 2397 2172 2068 1965 1927 1909 1891 1870 1819 1717 1784 1784 1723 1758 1826 1739 1762 1719 1760 1732 1721 1784 1870 1808 1693 1798 1755 1746 1716 1724 1698 1796 1737 1657 1738 1711 1704 1622 1744 1766 1762 1789 1658 1752 1802 1692 1746 1703 1677 1680 1741 1781 1714 1695 1750 1778 1692 1758 1759 1733 1795 1758 1750 1756 1805 1849 1843 1777 1781 1804 1779 1805 1781 1845 1778 1765 1678 1749 1795 1757 1744 1747 1816 1743 1665 1782 1785 1770 1707 1758 1802 1784 1859 1763 1756 1810 1832 1713 1804 1747 1794 1758 1770 1689 1791 1734 1659 1742 1741 1722 1701 1762 1790 1790 1726 1780 1750 1748 1710 1771 1788 1756 1655 1704 1695 1683 1765 1762 1731 1737 1685 1739 1736 1657 1719 1724 1763 1792 1724 1756 1708 1711 1742 1741 1708 1705 1734 1697 1815 1781 1745 1755 1760 1724 1784 1731 1749 1739 1760 1858 1728 1670 1763 1748 1755 1636 1731 1722 1708 1787 1761 1771 1752 1709 1679 1765 1734 1748 1748 1683 1787 1780 1774 1842 1747 1749 1787 1743 1735 1791 1816 1768 1857 1812 1892 1878 1816 1950 1858 1969 1886 1856 1914 1876 1939 1978 1898 1917 1951 1952 1957 1948 1994 2007 2045 1873 2013 2004 2012 1961 2036 2002 1981 1981 2087 2108 2111 2195 2236 2169 2176 2205 2271 2369 2472 2535 2606 2798 2974 3011 3235 3576 3975 4450 5095 6155 7589 9067 10593 11460 11101 10477 9876 10191 10573 10463 10294 10571 11389 12521 14514 17669 21136 26074 31013 35653 38359 38374 36379 34258 32196 29763 26584 22075 17859 14833 12174 9733 7985 6632 5646 4739 4349 3827 3374 3201 3007 2886 2716 2500 2377 2440 2305 2326 2168 2259 2088 2164 2118 2114 2085 2048 1958 2025 1959 1986 1946 1971 1990 1924 1950 1923 1910 1942 1911 1829 1868 1878 1892 1925 1900 1885 1839 1897 1878 1915 1937 1933 1939 1864 1842 1927 1873 1950 1917 1866 1928 1887 1854 1924 1909 1834 1880 1882 1957 1836 1862 1864 1817 1839 1847 1889 1904 1956 1964 1823 1883 1889 1854 1851 1922 1931 1884 1886 1930 1898 1895 1936 1908 1856 1902 1909 1929 1880 1941 1879 1888 1921 1874 1897 1962 1978 1852 1903 1972 1911 1949 1918 1969 1971 1903 1930 1924 1959 1926 1873 1932 1804 1854 1903 1901 1874 1983 1922 1867 1882 1894 1896 1973 1879 1964 1887 1929 1917 1915 1919 1952 1865 1980 1896 1883 1867 1873 1871 1814 1952 1849 1869 1939 1881 1923 1805 1909 1913 1939 1960 1937 1933 1801 1888 1917 1860 1812 2007 1903 1952 1865 1871 1869 1943 1950 1904 1876 1912 1945 1922 1953 1936 1906 1817 1858 1967 1898 1926 1972 1870 1862 1850 1898 1866 1820 1851 1872 1928 1839 1937 1888 1829 1860 1899 1866 1877 1879 1835 1904 1957 1912 1877 1840 1901 1828 1890 1892 1941 1931 1879 1822 1895 1890 1837 1886 1896 1852 1853 1853 1947 1886 1843 1848 1828 1893 1915 1819 1808 1867 1856 1808 1894 1853 1954 1882 1912 1893 1903 1879 1936 1864 1824 1792 1837 1904 1769 1933 1872 1829 1883 1910 1834 1890 1987 1881 1933 1986 1874 1804 1865 1874 1932 1927 1941 1911 1893 1884 1919 1983 1927 1940 1923 1839 1883 1909 1934 1940 1948 1908 1932 1940 1911 1913 1986 2028 1882 1958 1970 1908 2028 2058 1905 1871 1937 1987 1818 1932 1915 1906 1947 1967 1900 2008 1980 1963 1979 1997 1861 1996 1919 1906 1968 1965 1880 1966 1948 1893 1886 1914 2028 1971 1903 1941 1930 1971 1907 2008 1930 1934 1999 1948 1973 1995 2023 1895 1865 1913 1948 1908 1991 2033 1978 1998 1941 1967 1890 1994 1893 1947 1944 1922 1965 1925 1907 1957 2035 1961 1957 1974 1984 1999 1938 2038 1870 2013 1984 1972 1825 2037 1891 2013 1846 1977 2021 1983 1894 2027 1904 1889 1926 1863 2007 2024 1942 1983 1927 1988 1995 2027 1991 1962 1936 1936 1926 1948 1906 1912 1877 1942 1979 1930 2043 1975 1939 1970 2002 1905 2027 2035 1959 1950 1993 1985 1996 1956 1919 1953 2003 1934 1981 2005 2002 1969 2017 1980 1920 1944 1982 1919 1926 1933 1927 2062 1980 2039 1940 1990 2010 2029 2006 1936 1921 1979 1877 1935 1977 1986 1913 2039 2024 1962 1997 2025 1946 1945 2044 1966 1926 2009 1977 1925 2000 1951 1975 1958 2032 1942 2008 2011 1963 1939 2009 2027 1991 1957 2037 1969 1995 2048 2058 1926 1970 2014 2041 2023 1995 1978 1963 2021 1977 2045 2015 2103 1908 1898 2018 2048 1992 1962 1986 1926 1988 2013 2013 2046 1972 1941 1992 2050 1996 2001 2079 2024 2038 1926 1971 1974 1975 1942 1950 2063 2066 1988 2037 1976 1974 2041 2039 1926 1956 2059 2012 1984 2037 1980 2044 1955 1937 2024 2049 2057 2057 1975 2056 1998 1924 2038 1999 1970 1965 2024 2132 1961 2000 2035 1996 2019 1955 1983 1981 2011 1956 1945 2005 1987 2138 2039 2048 1941 1971 2001 1934 2074 2000 2027 1924 2045 2013 1925 2058 2073 1968 2077 2067 2046 2022 1981 1922 1939 1987 2014 1962 2097 1962 1986 2029 2040 1989 2021 2000 1978 1970 1976 2003 2017 1956 2062 2026 2019 2043 1997 2021 2037 1970 2026 1954 2012 2016 2066 1925 2088 2022 1984 1977 2055 2030 1962 1971 1989 2104 1982 1945 1986 1952 2012 2014 1985 1999 1960 1904 2003 1929 2028 2048 1924 1970 1910 1970 2113 1921 1996 1975 2043 2015 2084 1936 2056 2043 2023 1952 1990 2008 2032 1974 2031 2028 2033 1993 1989 2047 1945 2015 1961 1953 2021 2011 1980 2011 1979 1965 2024 1969 1979 1991 1975 1948 1961 1985 1886 1949 1956 2026 1930 1970 1919 2063 1972 1910 1931 1996 2062 2006 2046 1953 2015 2007 2023 2066 2019 1964 1942 1961 2034 1981 1926 1951 1861 2023 1938 1995 1989 1954 1956 2070 1949 1998 1947 1908 1983 1967 1977 2011 1912 1898 1918 1953 1962 2010 2036 1967 2028 1982 2021 2012 2073 1899 1984 1896 1962 2001 1956 1992 2031 2037 2048 2000 2034 2016 2011 2059 1931 2015 2026 2078 1989 2080 2125 2027 1974 2061 1971 1999 2074 1970 1991 2043 2073 1976 2045 2042 2059 2027 1951 2036 1936 1970 1967 2008 1970 1987 1949 1987 2006 1986 2038 1992 2045 2052 2018 2008 2057 2065 1974 1969 1962 2030 1933 1958 2066 2001 2056 1987 2027 1972 2035 1948 2004 1984 2059 1920 1950 1986 1971 2027 2092 2003 2002 1997 2020 2063 1950 1936 2032 1984 2032 1994 2051 2036 2036 1987 1959 2043 2138 2028 1954 1975 1976 2106 2000 1988 2062 2082 2005 1983 2064 2070 2076 2052 2066 2021 2096 2166 2073 2052 2164 2101 2080 2021 2093 2103 2117 2107 2120 2084 2070 2069 2051 2118 2093 2100 2076 2064 2122 2167 2136 2065 2113 2130 2142 2199 2221 2217 2095 2226 2175 2315 2239 2286 2250 2204 2185 2242 2279 2179 2157 2249 2165 2098 2135 2118 2046 2104 2094 1973 2055 2100 2077 1965 2052 1991 1991 1979 2117 2057 2010 2056 2017 1936 2050 2013 2129 1967 2086 1999 2060 2060 2097 2031 2074 2019 2018 1986 1969 2061 2036 2065 2043 2021 1993 2013 2020 2010 2028 1972 2073 2013 1982 1982 2053 2069 2036 2019 2043 1970 2036 2089 1974 2078 2112 2072 2053 1979 2065 2071 2023 2068 2096 2042 1943 2055 1922 2049 2076 2047 1968 1986 2033 2020 1946 1986 1985 2024 2030 1973 1951 1968 2053 2066 2051 1958 1945 1974 2032 2081 2011 1988 2014 1958 1968 2055 1935 2045 2060 1977 2005 2035 2035 2002 1974 2011 2019 1967 2019 2049 1965 2050 2045 2017 2036 2028 1961 2044 2002 2092 2023 2034 2004 2032 1935 2016 2047 1908 2028 1911 2100 1996 2026 2030 1956 2071 1979 1972 1991 2075 1958 2002 1946 2011 2016 2087 1986 2116 2052 2066 2044 2053 1945 2052 2003 2034 2066 2044 2062 2021 2058 2030 1999 1985 1952 2133 2020 1959 2083 2001 2055 2090 2058 2035 2043 2009 2013 2034 2044 2043 2078 2069 1975 2026 2021 2082 2036 1974 2010 1948 1996 2078 2031 1985 1995 1994 2039 2036 2119 2042 2046 2024 2045 2015 1960 2028 2037 2030 2047 2093 2068 2078 2065 2090 2062 2023 2047 1941 1960 2072 2134 2111 2063 2108 2031 2049 1977 1989 1945 2117 2046 2070 1990 2092 1975 2027 2035 2029 2151 2088 2077 2092 2041 1977 2081 2051 2059 1989 2024 2085 2088 2054 2066 2150 2010 2066 1988 2006 2021 2074 2030 2082 2078 2101 2004 2103 2088 2041 2026 2091 2126 2097 2069 2097 2052 2082 2031 1996 2025 2054 2137 2143 2020 2089 2110 2067 2058 2193 1959 2095 1996 2060 2140 2049 2053 2063 2052 2080 2046 2038 2071 2082 2115 2049 2073 2057 2064 2088 2078 2043 2108 2050 2037 2122 2120 2115 2048 2108 2034 2127 2081 2133 2162 2082 2124 2073 2112 2129 2087 2063 2086 2101 2035 2077 2091 2104 2136 2132 2112 2124 2108 2114 2035 2056 2116 2100 2094 2124 2074 2106 2120 2012 2068 2142 2127 1966 2098 2068 2119 2022 2126 2026 2036 2100 2080 2126 2084 2103 2147 2035 2164 2053 2050 2110 2102 2120 2057 2124 2115 2105 2047 2045 2108 2053 2087 2081 2161 2011 2098 2079 2041 2094 2171 2178 2094 1999 2060 2111 2028 2115 2105 2103 2076 2110 2124 2060 2185 2061 2015 2038 2082 2136 2083 2053 2138 2123 2179 2040 2071 2106 2045 2094 2090 2094 2105 2197 2113 2102 2099 2082 2182 2055 2126 2234 2178 2092 2118 2068 2068 2068 2066 2135 2071 2101 2084 2097 2103 2100 2074 2090 2106 2167 2057 2116 2123 2026 2177 2162 2083 2062 2115 2071 2131 2075 2202 2024 2086 2090 2138 2200 2084 2165 2171 2106 2078 2129 2089 2160 2086 2085 2119 2081 2075 2163 2133 2132 2138 2165 2079 2031 2119 2146 2128 2072 2148 2157 2054 2063 2120 2109 2072 2184 2142 2187 2087 2105 2034 2148 2099 2144 2086 2063 2200 2143 2113 2142 2032 2076 2142 2141 2238 2141 2155 2098 2176 2185 2149 2207 2142 2014 2127 2160 2214 2202 2089 2064 2123 2124 2212 2240 2186 2195 2108 2152 2178 2169 2246 2233 2308 2365 2305 2352 2368 2456 2525 2495 2377 2566 2380 2440 2336 2377 2422 2457 2363 2469 2396 2403 2425 2410 2235 2376 2307 2352 2358 2437 2513 2452 2426 2520 2528 2487 2608 2637 2665 2773 2755 2952 2913 3144 3167 3197 3321 3337 3346 3274 3113 3184 3140 3017 3100 2965 2910 2963 2956 2860 2702 2792 2663 2633 2513 2574 2468 2496 2412 2211 2350 2286 2208 2292 2224 2197 2156 2221 2194 2154 2192 2184 2250 2211 2210 2151 2124 2160 2141 2152 2220 2154 2271 2126 2182 2119 2209 2142 2092 2105 2227 2173 2061 2155 2180 2130 2137 2078 2122 2105 2170 2141 2107 2076 2180 2193 2093 2120 2137 2191 2099 2138 2161 2168 2151 2128 2183 2173 2110 2186 2149 2146 2127 2129 2062 2236 2010 2106 2247 2115 2113 2151 2141 2049 2149 2080 2202 2180 2116 2131 2065 2139 2186 2138 2119 2177 2169 2195 2284 2195 2181 2172 2145 2202 2129 2169 2168 2131 2174 2121 2178 2208 2192 2132 2280 2187 2138 2171 2167 2200 2156 2137 2093 2143 2140 2139 2119 2121 2197 2176 2117 2192 2148 2093 2136 2207 2189 2193 2184 2199 2164 2112 2192 2187 2163 2177 2142 2148 2149 2156 2245 2124 2173 2206 2178 2114 2176 2187 2174 2253 2229 2255 2051 2171 2191 2188 2160 2236 2155 2192 2223 2240 2153 2229 2166 2176 2238 2328 2178 2093 2289 2200 2237 2098 2122 2148 2223 2190 2212 2224 2219 2152 2151 2240 2162 2089 2136 2216 2163 2171 2190 2189 2175 2034 2175 2101 2210 2194 2158 2181 2234 2316 2157 2149 2107 2259 2173 2129 2105 2256 2197 2163 2169 2101 2219 2265 2166 2183 2094 2200 2202 2248 2148 2174 2187 2144 2158 2168 2244 2058 2228 2167 2168 2133 2195 2195 2155 2121 2159 2188 2160 2146 2194 2079 2188 2173 2193 2203 2133 2070 2136 2193 2227 2161 2170 2129 2172 2090 2074 2120 2184 2159 2225 2154 2168 2110 2132 2245 2219 2175 2194 2230 2178 2190 2147 2140 2183 2140 2163 2141 2208 2237 2194 2244 2222 2081 2176 2161 2181 2075 2122 2145 2186 2126 2201 2133 2150 2228 2154 2137 2134 2287 2139 2107 2223 2202 2212 2165 2205 2133 2225 2155 2210 2140 2204 2182</intensities>
			</dataPoints>
		</scan>
	</xrdMeasurement>
</xrdMeasurements>
