<?xml version="1.0" encoding="utf-8" standalone="no"?>
<xrdMeasurements xmlns="http://www.xrdml.com/XRDMeasurement/1.0" xmlns:xsi="http://www.w3.org/2001/XMLSchema-instance" xsi:schemaLocation="http://www.xrdml.com/XRDMeasurement/1.3 http://www.xrdml.com/XRDMeasurement/1.3/XRDMeasurement.xsd" status="Completed">
  <sample type="To be analyzed">
    <id>000000-0000 - Converted with PowDLL</id>
    <name>Carbonates_1000</name>
  </sample>
  <xrdMeasurement measurementType="Scan" status="Completed">
    <usedWavelength intended="K-Alpha">
      <kAlpha1 unit="Angstrom">1.54056</kAlpha1>
      <kAlpha2 unit="Angstrom">1.54439</kAlpha2>
      <kBeta unit="Angstrom">1.3922500</kBeta>
      <ratioKAlpha2KAlpha1>0.5</ratioKAlpha2KAlpha1>
    </usedWavelength>
    <!--KBeta value not accurate but needed by the xrdml format. Please change.-->
    <scan appendNumber="0" mode="Continuous" scanAxis="Gonio" status="Completed">
      <header>
        <startTimeStamp>2021-12-21T20:42:53+00:00</startTimeStamp>
        <endTimeStamp>2021-12-21T20:42:53+00:00</endTimeStamp>
        <!--Time/Date values are not accurate but needed by the xrdml format-->
        <author>
          <name>PowDLL</name>
        </author>
        <source>
          <applicationSoftware version="2.43">PowDLL</applicationSoftware>
        </source>
      </header>
      <dataPoints>
        <positions axis="2Theta" unit="deg">
          <startPosition>4.000</startPosition>
          <endPosition>70.010</endPosition>
        </positions>
        <commonCountingTime unit="seconds">1.00</commonCountingTime>
        <!--Time is not accurate but needed by the xrdml format. Please change.-->
        <intensities unit="counts">2314.494 2167.012 2078.533 2115.203 2098.079 2086.204 2088.925 1966.328 1935.104 1987.707 2006.545 1973.951 2001.657 2015.482 1981.865 1953.833 1930.574 1957.389 1951.736 1879.647 1922.059 1918.464 1930.779 2016.673 1958.265 1822.348 1847.269 1948.516 1805.750 1818.847 1828.630 1761.958 1847.572 1866.340 1774.721 1719.079 1776.819 1760.176 1782.365 1816.725 1774.850 1791.902 1783.619 1803.527 1871.100 1798.483 1682.672 1658.464 1709.275 1708.944 1720.987 1753.959 1779.449 1782.734 1758.809 1754.961 1771.877 1751.643 1679.079 1667.092 1680.753 1641.976 1658.547 1681.233 1656.216 1633.150 1695.191 1662.658 1624.895 1673.282 1680.725 1697.565 1699.036 1664.442 1645.884 1673.685 1665.696 1592.612 1560.868 1681.530 1653.816 1562.419 1643.779 1628.912 1640.829 1666.437 1630.062 1636.805 1616.098 1585.621 1591.784 1599.024 1572.548 1539.497 1537.863 1566.880 1587.185 1552.520 1526.534 1581.202 1578.811 1561.222 1545.869 1520.432 1551.265 1517.590 1513.150 1613.359 1591.955 1525.464 1528.215 1570.148 1525.416 1479.668 1486.326 1507.061 1502.615 1563.831 1556.780 1509.078 1564.217 1511.432 1457.802 1505.105 1565.496 1508.158 1527.029 1555.112 1466.314 1453.783 1466.223 1476.484 1492.307 1491.313 1491.994 1461.734 1458.998 1565.325 1526.061 1431.053 1422.084 1458.773 1447.703 1452.933 1472.794 1457.059 1477.622 1487.748 1474.482 1457.811 1422.587 1412.235 1429.871 1417.182 1350.761 1417.746 1484.661 1451.022 1446.825 1392.694 1366.820 1397.199 1391.889 1368.910 1405.612 1448.614 1408.133 1391.418 1425.357 1484.345 1487.938 1359.432 1342.963 1402.974 1385.013 1353.761 1406.826 1428.037 1368.746 1372.301 1401.161 1412.954 1408.462 1404.001 1385.608 1372.394 1357.708 1330.934 1342.820 1361.503 1359.840 1366.307 1411.582 1349.306 1326.018 1413.136 1330.675 1294.498 1321.703 1327.506 1344.570 1380.651 1386.817 1331.376 1264.726 1297.670 1352.905 1340.241 1292.972 1325.047 1345.494 1332.860 1333.598 1304.154 1258.516 1262.349 1318.269 1326.781 1314.578 1301.926 1291.622 1284.868 1257.102 1264.976 1285.727 1239.497 1255.286 1301.006 1311.868 1289.579 1261.877 1240.775 1271.454 1341.480 1314.663 1291.298 1303.176 1299.027 1280.461 1301.376 1332.624 1326.763 1298.697 1279.641 1278.703 1304.161 1332.424 1250.744 1207.840 1243.907 1249.984 1291.798 1289.492 1233.025 1218.471 1278.461 1259.808 1235.769 1297.690 1278.442 1253.162 1287.993 1325.489 1280.238 1292.420 1265.177 1201.572 1266.661 1254.821 1256.964 1278.300 1212.607 1256.677 1286.192 1246.104 1215.711 1184.565 1218.937 1271.802 1256.746 1213.290 1212.862 1234.148 1241.480 1253.601 1235.867 1196.530 1177.227 1202.160 1229.161 1166.818 1121.178 1234.206 1235.670 1169.742 1144.274 1167.713 1203.545 1210.399 1223.212 1245.655 1184.674 1186.167 1212.162 1202.725 1240.272 1178.917 1162.188 1227.626 1178.123 1206.385 1200.241 1132.828 1161.909 1190.900 1185.195 1158.446 1146.749 1192.514 1195.586 1177.187 1203.373 1195.196 1146.320 1132.615 1168.435 1160.433 1167.552 1188.743 1195.174 1186.099 1143.195 1133.660 1168.007 1172.637 1148.867 1136.750 1148.026 1149.444 1117.535 1161.102 1197.469 1126.335 1118.017 1137.292 1158.936 1176.947 1160.093 1175.698 1185.760 1159.427 1151.934 1144.626 1140.871 1136.008 1131.718 1194.999 1192.504 1119.325 1114.409 1156.469 1160.398 1141.815 1142.061 1104.156 1105.829 1112.876 1094.137 1145.878 1176.029 1177.117 1163.198 1112.779 1126.842 1133.220 1091.844 1077.760 1064.483 1062.369 1097.252 1150.066 1142.194 1117.803 1111.285 1113.557 1126.155 1149.444 1157.313 1134.994 1118.192 1143.410 1167.871 1165.189 1168.875 1127.893 1087.038 1065.828 1034.431 1080.260 1125.279 1100.361 1073.136 1155.646 1149.787 1086.169 1127.249 1133.057 1091.122 1077.429 1109.874 1100.575 1094.831 1060.845 1023.199 1101.106 1139.177 1120.270 1089.697 1063.445 1105.614 1123.976 1076.841 1041.160 1054.243 1078.137 1089.029 1102.248 1127.326 1116.875 1082.237 1081.501 1121.671 1091.787 1026.457 1022.447 1068.612 1057.585 1050.472 1060.968 1018.395 1094.626 1112.309 1041.096 1064.476 1065.890 1088.110 1107.387 1065.907 1079.632 1114.725 1091.737 1015.457 999.569 1055.008 1048.356 982.048 1051.565 1064.684 1032.723 1023.132 988.648 956.787 972.357 1016.284 1033.256 1043.766 1030.932 1026.199 1061.093 1058.892 1059.020 1068.715 1050.242 1007.272 998.945 1009.532 1028.373 1089.087 1054.275 1014.211 1037.703 1023.883 1032.308 1037.402 1022.745 1023.652 1021.536 1014.366 1027.213 1055.182 1023.582 999.793 1021.728 1034.207 981.371 1002.924 1039.342 1003.492 1005.449 1033.398 1043.248 1022.936 1005.669 1026.110 1025.189 984.904 968.143 983.780 990.417 987.048 1005.331 1024.129 1007.862 970.113 960.992 995.949 993.617 995.081 1041.296 1037.097 1007.405 1019.154 1050.837 1007.026 951.228 899.908 899.244 986.695 992.357 963.574 954.808 944.752 955.542 944.104 940.732 966.743 922.826 952.501 1025.458 1017.914 966.972 969.546 988.918 970.521 951.629 948.203 964.485 989.786 993.504 946.619 940.027 980.062 975.789 938.025 921.453 935.041 946.726 944.616 943.038 947.802 955.933 959.777 922.662 904.864 941.951 953.181 907.706 905.319 980.998 1027.187 990.266 982.102 1028.266 1022.947 947.311 890.006 888.743 904.276 909.139 936.142 977.994 985.381 940.755 930.978 939.205 925.548 927.881 945.543 935.179 918.548 948.672 907.025 886.197 897.117 854.081 890.546 908.214 868.312 860.518 910.841 922.720 878.792 857.514 903.348 890.762 870.013 913.560 926.530 877.743 885.037 943.049 904.222 902.334 900.774 888.554 929.902 941.958 950.861 936.471 867.562 855.440 883.981 875.204 834.022 873.862 884.657 885.935 927.890 936.875 933.635 907.581 871.471 870.753 849.936 854.920 881.738 872.908 908.350 893.401 827.840 828.500 889.650 900.874 892.909 924.771 894.634 858.660 858.803 878.348 882.742 857.077 847.600 866.919 868.493 883.109 879.471 863.253 883.691 888.595 862.648 847.094 869.257 869.216 859.365 867.796 883.142 860.964 838.438 848.186 868.007 850.644 849.159 865.976 863.514 841.365 874.211 885.522 840.560 814.568 798.437 825.759 862.076 845.851 839.870 811.459 808.269 865.498 853.118 862.371 866.756 813.843 804.304 839.533 870.332 855.408 809.699 820.067 842.299 825.823 809.271 841.021 885.034 877.322 833.566 879.093 866.162 807.955 824.023 820.216 816.843 837.301 849.082 819.085 859.464 849.184 751.526 784.224 837.526 830.416 786.629 785.927 869.534 869.569 789.620 791.949 792.926 769.336 775.688 821.914 799.459 784.727 788.159 777.967 795.862 810.831 813.745 813.889 806.838 791.745 812.620 850.123 823.570 779.742 763.361 789.143 834.653 843.434 820.332 795.736 790.484 803.489 817.764 823.894 816.416 793.660 801.503 825.813 833.047 828.578 811.289 797.042 798.787 809.223 810.301 776.941 748.058 775.975 786.094 785.373 763.325 736.568 821.305 812.596 740.968 761.002 786.932 811.374 813.438 784.114 771.897 805.380 815.643 785.541 793.648 805.386 763.803 730.908 783.079 753.560 750.246 801.556 805.199 788.762 759.703 756.614 790.313 786.241 785.894 776.929 743.490 744.005 777.700 765.434 713.012 729.087 756.506 761.487 766.767 789.588 772.876 780.644 792.661 750.790 770.205 788.008 787.011 792.715 761.415 765.396 780.694 770.055 793.461 811.765 792.550 751.304 729.490 732.685 762.469 786.267 770.080 773.832 791.792 813.263 818.945 743.053 718.672 749.352 744.372 743.757 736.441 725.870 723.989 723.872 742.242 764.548 753.498 706.944 719.060 755.564 758.668 742.152 736.784 716.726 696.889 715.681 724.494 729.276 707.859 660.039 680.230 704.564 700.343 697.972 719.556 740.636 725.377 697.936 719.532 710.932 683.158 682.815 712.662 744.841 727.763 689.742 697.206 700.036 671.388 659.906 698.796 708.593 706.914 705.640 699.047 703.313 730.893 735.166 697.204 676.392 682.587 677.258 663.378 688.226 713.780 697.349 675.658 696.533 673.451 651.378 663.128 668.604 640.207 692.370 721.696 641.812 664.741 704.090 703.461 676.398 640.437 653.543 659.811 631.013 624.095 607.543 618.561 647.929 644.987 666.131 666.065 652.750 674.219 677.775 639.858 624.436 667.032 677.791 668.820 664.969 674.556 692.654 688.653 651.454 621.902 644.196 645.799 662.494 669.224 614.610 666.004 679.583 637.189 653.678 629.789 609.011 626.706 660.816 680.404 655.254 640.456 660.042 642.266 648.675 660.302 641.990 627.809 653.029 661.370 644.497 656.388 656.067 655.464 642.389 604.655 615.477 628.266 617.384 612.572 629.011 616.616 608.749 634.221 626.361 602.644 613.066 648.484 646.305 641.406 636.378 624.409 624.273 658.467 671.853 660.243 655.150 609.848 600.767 628.022 625.894 605.745 606.098 612.713 611.077 628.115 611.539 628.833 674.639 618.445 597.456 617.222 616.998 591.181 580.800 602.763 619.222 604.592 626.984 616.634 584.476 591.627 590.534 606.287 599.960 555.026 561.417 571.731 589.791 609.515 585.553 617.411 622.111 583.364 610.914 595.907 560.353 549.531 564.805 615.447 626.477 608.922 613.604 589.287 581.677 601.409 603.237 561.887 552.704 572.627 593.557 623.472 608.341 601.408 603.323 550.906 572.076 576.936 568.868 629.340 570.619 543.344 588.781 603.503 625.689 589.643 553.080 574.954 553.319 568.890 597.143 585.390 574.102 556.037 563.246 587.675 583.039 615.653 597.280 540.383 558.244 561.697 592.364 610.663 556.811 560.055 556.551 557.315 585.262 542.428 554.731 591.122 579.709 582.726 581.180 570.399 558.862 547.214 541.711 566.895 586.283 551.002 549.033 558.795 559.903 554.774 513.217 527.800 569.722 560.499 555.901 568.558 562.974 538.832 554.203 569.116 547.004 528.498 568.964 552.721 538.762 571.599 580.450 545.220 544.419 574.169 563.482 541.948 548.318 554.216 530.705 529.939 540.776 541.482 552.708 601.743 561.049 516.692 550.857 565.460 536.420 519.708 529.489 529.670 555.297 558.435 536.210 533.393 522.162 498.578 481.886 500.537 558.750 558.454 523.447 520.010 516.960 506.738 530.447 565.995 528.704 503.113 515.848 531.417 527.658 547.078 544.948 524.991 530.692 512.383 525.323 550.273 539.035 553.581 546.919 511.967 503.017 548.432 550.199 505.855 497.151 550.635 517.647 497.391 531.498 501.653 502.976 525.966 533.043 527.097 519.432 515.943 531.923 558.624 542.089 527.064 518.315 503.025 515.382 536.226 518.008 489.609 532.332 525.060 523.706 547.862 503.815 490.460 504.643 516.049 522.667 509.819 506.808 518.394 525.451 531.370 522.118 525.996 548.014 522.588 505.867 495.419 471.176 464.156 472.019 501.667 525.944 497.446 463.394 460.611 475.557 482.469 508.207 508.776 493.324 509.898 527.892 504.575 465.638 466.351 501.674 494.523 473.494 492.038 516.398 505.309 465.742 454.475 504.282 510.211 488.638 503.190 530.556 446.273 438.676 500.440 481.744 516.071 493.539 448.114 486.374 517.051 488.437 477.921 510.009 482.054 508.157 514.169 467.789 495.871 513.365 497.317 483.850 495.684 503.483 493.499 475.728 467.175 474.581 514.082 531.531 495.037 495.427 511.946 514.922 507.928 502.175 466.555 477.974 529.868 495.586 483.990 498.443 496.444 480.953 474.261 454.603 451.048 497.921 509.803 493.307 468.809 441.213 427.621 452.725 464.355 441.977 464.070 472.448 470.959 490.927 507.214 466.284 447.662 477.775 477.997 467.964 470.506 472.435 463.138 483.339 469.233 430.377 435.340 469.551 464.973 460.639 493.040 480.928 445.769 445.050 469.259 450.316 442.121 456.233 458.004 431.185 433.422 465.623 474.552 440.174 448.424 455.231 465.579 495.489 456.246 465.422 494.745 466.155 456.334 454.029 463.522 482.480 473.245 439.364 418.779 434.288 462.652 457.859 448.205 460.167 471.892 456.466 489.630 501.048 414.245 413.175 440.607 450.963 466.677 488.407 478.995 464.037 460.188 433.501 440.001 467.458 480.597 475.026 448.946 433.978 462.466 502.705 449.788 449.822 472.222 408.911 440.955 449.898 421.073 433.544 448.099 444.745 449.239 467.237 460.735 461.510 456.733 437.534 434.127 446.200 439.086 438.485 478.601 447.895 401.457 412.106 454.514 439.563 422.428 429.422 443.282 466.623 448.417 421.315 413.317 387.758 439.077 475.821 439.313 430.194 425.143 413.245 412.808 432.686 435.913 427.307 414.594 404.425 424.993 449.283 450.517 431.782 418.752 426.166 428.217 409.655 401.797 407.289 437.998 459.944 416.109 396.676 444.788 492.167 453.685 406.772 399.072 430.345 452.421 402.135 416.753 441.070 380.270 403.696 413.699 404.816 417.968 402.792 422.338 411.657 372.846 431.827 445.239 427.435 445.638 472.303 424.601 382.578 396.880 414.450 393.936 389.534 411.039 427.871 443.450 406.907 366.050 385.151 421.266 435.295 435.347 429.962 407.754 403.166 403.251 399.317 405.893 400.575 413.523 441.589 436.759 395.836 380.838 410.434 433.560 403.711 414.347 432.835 404.070 409.161 413.870 415.164 419.738 401.629 371.852 373.346 398.572 395.473 393.288 399.665 407.157 411.630 412.058 402.183 403.860 426.311 417.233 400.001 410.116 430.056 404.468 402.795 406.272 378.684 369.994 413.897 416.412 377.608 406.308 387.909 376.313 402.020 402.310 391.974 381.727 378.193 379.393 369.874 372.774 390.207 401.916 402.921 419.113 412.235 374.163 379.293 397.610 398.570 399.834 423.266 396.179 376.513 393.000 391.013 375.407 376.070 392.218 397.435 385.913 374.368 381.854 404.483 409.868 393.173 389.002 400.902 381.536 373.638 393.559 414.811 409.461 401.485 403.234 424.078 450.928 416.979 397.118 413.481 413.440 409.569 405.747 407.731 412.186 401.476 410.820 411.818 387.768 399.902 427.521 441.704 426.359 393.371 405.424 418.622 409.702 416.923 418.527 425.331 418.538 385.233 402.910 439.425 441.307 415.497 420.679 403.114 386.467 415.548 445.266 433.932 410.588 408.223 409.040 395.185 404.113 423.771 407.224 424.580 407.881 382.663 425.457 412.166 402.240 428.149 433.512 386.870 385.361 416.897 412.883 391.177 397.264 393.164 368.704 383.151 373.081 358.518 376.892 407.258 408.363 422.371 429.584 386.047 391.436 400.640 398.681 407.353 386.577 373.205 379.822 392.957 412.246 420.148 396.968 364.153 373.674 396.368 391.950 373.344 382.875 386.616 384.396 389.774 400.318 397.770 383.379 385.085 410.834 415.183 430.498 414.657 361.149 390.318 398.456 382.122 392.939 413.860 428.429 416.973 397.467 413.245 440.015 439.960 435.481 462.188 455.160 451.016 457.633 455.824 489.419 529.975 562.550 589.653 597.481 594.186 587.291 575.299 559.169 564.195 558.957 535.580 525.741 481.487 455.234 448.906 408.386 401.659 421.794 448.561 456.801 399.753 392.452 413.703 393.214 401.345 378.916 374.853 412.251 393.506 427.211 440.567 392.152 390.209 383.328 373.367 375.555 383.343 406.178 420.478 411.471 400.331 419.983 413.652 401.915 418.087 392.970 377.782 390.588 398.863 384.748 390.678 394.282 375.547 367.586 373.699 379.857 388.366 405.360 395.280 383.194 381.119 373.724 371.033 381.799 377.368 358.522 392.348 379.370 371.880 415.165 380.639 342.188 346.455 367.975 368.678 368.261 360.102 352.727 366.139 356.177 329.246 328.254 358.002 343.551 348.368 377.001 379.242 371.895 351.847 351.454 375.053 365.073 375.500 365.474 336.658 379.563 377.428 353.468 354.278 357.873 375.075 379.006 367.430 356.984 326.222 344.411 369.249 338.726 354.588 354.073 338.574 348.992 351.896 332.663 326.870 341.168 331.076 332.122 335.398 333.592 345.047 350.227 352.462 342.926 323.805 354.549 342.102 314.215 343.430 322.603 327.649 346.024 333.975 347.627 310.789 302.349 348.275 314.407 335.132 351.474 320.503 336.934 362.718 368.811 353.157 338.121 360.793 367.493 355.010 353.257 327.133 339.686 351.611 312.526 307.151 328.830 345.877 351.334 359.380 348.890 335.224 334.054 339.436 362.640 362.827 342.268 352.913 381.830 367.680 329.514 327.438 332.038 331.020 353.742 391.831 370.058 377.841 379.505 343.659 359.652 341.923 351.289 404.309 385.737 353.556 372.622 411.679 399.541 382.722 381.200 396.966 415.788 402.129 389.547 405.140 416.781 375.818 412.506 464.323 447.777 462.000 480.912 485.813 504.641 559.156 573.074 554.468 591.541 702.559 695.659 688.716 740.446 776.418 833.330 889.680 940.942 998.696 1054.553 1153.248 1259.111 1344.871 1461.503 1538.808 1685.516 1916.038 2058.715 2224.451 2283.585 2208.835 2158.673 2050.971 1914.524 1798.688 1694.733 1560.872 1364.414 1191.332 1086.236 912.633 834.435 790.199 675.122 623.777 584.997 556.862 560.722 564.597 535.037 497.901 487.474 496.254 482.725 474.123 463.631 431.781 451.539 456.027 436.210 430.072 400.925 393.459 391.604 373.998 385.592 371.242 373.101 396.277 353.792 351.785 359.876 350.797 371.443 367.651 341.547 335.550 358.944 346.262 330.398 331.488 334.566 342.924 343.669 326.977 309.019 324.541 352.432 347.933 319.312 329.724 349.945 335.526 299.148 300.922 339.969 330.690 294.899 324.209 342.395 324.082 304.388 311.444 311.620 304.857 309.956 323.954 312.729 294.211 289.903 303.881 322.889 325.598 302.317 288.357 323.471 336.205 319.008 302.523 305.345 318.606 323.258 305.902 290.543 330.779 328.337 294.517 300.658 312.103 315.030 324.615 335.825 317.831 316.174 322.776 304.797 279.466 328.433 344.970 297.125 287.711 300.836 316.824 304.741 270.355 297.151 306.239 284.554 293.914 331.256 302.724 286.548 321.788 269.257 258.164 288.482 298.050 293.826 293.737 298.007 302.812 300.934 276.756 302.246 336.225 294.823 281.472 286.111 289.387 296.700 302.610 304.756 292.437 275.965 290.549 307.095 297.026 280.000 292.486 279.277 277.698 298.260 286.373 263.269 283.966 326.442 317.479 265.825 253.162 289.776 319.391 316.327 306.967 298.366 285.888 280.430 280.974 294.287 311.567 311.884 323.982 328.063 311.711 298.554 295.301 316.023 329.431 312.376 341.219 343.395 342.281 371.326 298.159 266.310 302.800 316.968 293.477 306.387 319.103 299.347 304.097 306.800 317.546 316.207 268.986 275.158 309.371 319.451 304.395 292.365 314.828 341.753 327.781 298.189 272.234 272.300 300.834 317.860 289.939 278.260 306.839 300.562 291.729 280.096 273.104 297.983 313.793 310.927 301.442 294.737 291.505 301.138 296.495 265.944 276.258 288.456 292.583 305.842 310.996 304.121 289.085 278.969 279.513 248.750 248.018 282.227 270.095 284.697 305.448 302.744 288.500 262.092 271.052 289.739 270.134 268.163 249.731 259.908 312.738 277.776 257.135 267.086 268.181 276.171 274.322 288.676 304.912 267.379 244.560 255.089 281.541 300.826 285.493 252.243 245.282 278.243 293.088 282.533 269.982 268.101 262.233 261.479 251.867 237.046 254.168 261.574 263.443 272.519 274.367 279.621 278.741 275.601 281.702 266.800 260.804 270.403 275.015 285.797 262.043 257.123 300.665 268.548 257.295 271.637 265.967 265.489 233.396 242.427 294.519 275.390 277.695 284.340 262.346 245.796 261.269 284.559 293.716 291.542 283.745 260.222 251.911 278.971 285.003 275.240 271.522 280.137 282.737 252.385 258.693 295.834 255.185 250.567 267.276 271.435 286.643 284.074 279.509 285.368 298.954 329.086 319.364 297.371 313.455 312.272 333.993 364.058 363.963 360.940 389.871 402.243 389.647 420.534 423.461 435.433 481.178 511.120 540.049 577.189 661.790 792.103 827.332 851.088 955.402 1110.242 1213.176 1290.918 1394.709 1493.813 1458.426 1232.245 998.269 918.697 921.113 896.661 875.418 814.808 613.593 469.110 379.972 323.272 326.740 326.171 313.141 291.777 274.676 293.763 284.245 273.050 305.640 316.093 290.058 266.308 274.952 294.346 286.571 256.624 241.435 263.521 282.214 272.189 256.430 263.651 257.520 262.390 274.955 266.974 258.513 265.117 274.066 264.417 245.542 268.238 286.194 265.476 264.335 250.124 246.406 259.045 245.762 242.240 255.303 263.961 258.797 266.564 254.828 245.937 277.782 283.259 269.105 263.397 268.035 259.849 256.674 266.142 268.590 247.987 257.533 266.955 259.478 278.256 281.492 243.170 226.325 283.763 276.528 265.522 278.413 266.974 267.022 281.189 287.273 275.463 266.496 258.255 242.667 234.234 259.157 270.610 256.823 248.654 266.779 263.567 267.596 283.350 269.112 256.589 258.972 265.774 262.124 249.635 249.080 244.997 233.439 266.569 276.744 252.464 241.111 260.809 261.101 243.924 247.760 278.715 271.720 260.887 284.455 307.848 280.659 262.329 276.830 282.359 273.995 263.968 264.579 265.788 243.195 260.164 270.906 248.069 291.881 298.983 273.705 277.260 297.129 277.242 260.200 264.175 247.189 248.651 271.929 273.718 241.923 261.173 259.600 246.405 274.925 268.485 244.851 243.675 261.982 264.581 294.342 275.614 215.568 263.945 282.355 259.531 259.214 283.228 266.001 260.910 291.180 308.911 309.004 283.517 257.663 262.054 278.796 303.439 285.340 237.035 279.838 300.032 294.019 307.521 308.159 298.717 303.192 317.730 312.408 302.117 307.010 310.194 298.356 331.769 341.056 306.986 293.789 325.837 330.550 319.495 328.093 310.080 317.199 337.766 348.884 370.028 338.325 325.488 342.259 306.896 358.616 385.172 342.306 344.377 362.565 380.251 391.526 390.639 382.282 388.450 399.623 400.874 409.730 410.960 398.768 389.015 402.188 426.550 422.553 425.392 498.704 497.034 493.865 514.444 479.038 491.946 528.391 546.470 554.889 568.609 568.741 598.615 670.452 679.639 700.289 719.315 732.480 819.458 817.670 852.312 973.292 986.423 1023.628 1091.121 1183.311 1322.659 1400.784 1512.821 1665.154 1779.056 1944.664 2148.644 2376.765 2629.787 2874.589 3105.888 3504.454 4094.254 4560.561 4964.337 5638.129 6498.154 7115.549 8045.097 9264.615 10581.252 12057.635 13753.348 15658.133 18061.754 21081.197 23994.799 27333.673 30731.206 32931.190 33139.795 30633.132 27075.304 24383.505 22400.038 21629.985 21538.587 20899.716 18895.564 15785.958 12429.603 9679.037 7834.698 6409.821 5325.456 4638.234 4193.152 3668.438 3233.284 2960.695 2724.354 2499.220 2350.866 2222.905 2029.043 1830.210 1758.873 1694.577 1562.998 1495.847 1371.529 1306.704 1311.568 1208.420 1137.632 1139.809 1143.924 1077.147 979.012 996.374 997.252 848.303 847.784 853.279 805.538 781.079 777.784 755.318 733.834 727.135 699.760 684.770 704.690 711.542 648.251 613.714 642.620 654.167 587.628 576.671 574.681 549.767 539.857 549.429 560.041 534.087 486.320 501.306 521.275 529.517 523.681 478.553 469.462 480.123 465.114 437.156 441.270 421.194 396.954 445.652 469.908 430.499 396.533 428.142 441.854 418.850 408.804 427.956 406.756 387.690 394.610 404.982 393.652 385.245 377.576 361.296 349.512 361.145 364.996 362.728 383.877 381.678 356.117 342.089 352.600 345.579 339.627 352.258 372.502 377.892 368.583 349.859 328.480 314.022 312.490 331.111 346.634 323.678 307.760 302.340 293.381 292.364 327.716 322.831 297.040 319.092 303.322 284.974 287.185 292.706 296.944 280.614 271.094 282.025 274.995 291.404 294.195 271.501 282.464 275.147 266.168 269.820 261.581 256.459 262.782 278.661 295.621 302.935 304.808 299.182 281.119 260.787 258.525 273.791 287.046 282.792 275.325 276.888 272.594 249.467 274.836 276.942 243.743 263.028 270.031 255.526 237.835 232.510 258.295 283.469 274.612 242.255 239.930 259.187 279.755 286.993 276.767 285.065 301.329 298.178 286.270 307.353 302.993 280.069 314.437 307.940 331.251 380.689 359.686 331.861 339.673 364.964 386.571 432.726 452.736 482.857 550.683 568.997 594.016 626.476 658.804 719.519 729.697 746.978 775.837 719.452 658.993 634.826 628.158 608.562 582.606 571.549 549.063 489.335 446.099 420.943 407.069 392.413 355.896 331.833 313.924 293.565 294.576 291.343 296.028 308.216 297.913 287.262 281.171 273.409 270.217 290.196 272.871 233.804 240.091 262.896 257.594 228.788 220.574 252.970 248.088 219.829 219.401 232.108 225.509 216.933 223.836 229.118 227.185 247.091 263.351 226.764 207.391 231.628 241.557 205.965 228.677 245.229 223.479 207.867 226.622 229.509 218.973 226.472 242.122 228.930 227.651 233.705 190.586 218.144 240.463 218.668 225.058 210.929 202.732 209.618 209.500 224.655 261.026 264.809 223.700 234.814 223.721 203.432 214.104 212.474 233.658 248.692 232.578 219.445 210.082 211.831 216.657 206.730 201.290 204.320 211.673 216.302 209.119 212.012 201.240 174.610 212.353 209.459 180.837 188.070 190.953 220.158 231.985 217.442 238.635 214.581 203.425 222.924 201.055 200.423 204.209 194.005 188.855 195.119 206.404 210.736 200.911 186.697 198.438 209.264 189.927 175.447 181.811 199.739 201.983 176.500 179.063 187.490 183.135 190.768 191.679 183.068 178.210 185.084 192.081 213.610 222.240 197.026 204.582 249.272 253.365 202.136 210.486 219.316 218.478 225.064 218.056 207.299 206.611 218.828 230.891 223.351 226.395 232.262 210.771 213.399 225.445 224.445 216.264 218.748 223.176 226.041 223.182 205.088 212.430 232.351 235.930 230.710 218.090 205.233 198.598 198.928 206.002 206.468 204.785 216.970 226.955 219.273 213.096 224.683 215.980 200.815 205.447 220.982 207.756 208.205 226.009 232.869 223.043 219.910 200.119 178.527 205.885 205.369 203.820 216.520 205.568 193.082 205.491 213.685 193.394 210.936 230.042 224.669 203.836 181.707 208.588 230.682 208.578 212.027 217.987 215.586 209.191 200.726 202.161 203.051 191.398 177.811 190.165 187.399 178.556 194.087 174.777 174.213 200.276 202.759 174.784 189.020 209.492 195.948 205.540 187.009 174.385 194.242 194.174 177.210 174.721 187.099 188.604 193.443 187.047 184.443 204.947 197.958 181.728 173.074 169.008 172.868 183.375 200.152 210.961 195.644 182.229 182.353 194.374 214.087 216.018 193.405 174.639 184.287 178.577 190.742 205.646 188.379 216.244 203.113 173.976 199.294 188.650 184.643 184.724 170.995 185.382 197.128 200.470 198.244 185.292 202.177 203.643 182.171 191.765 187.727 189.053 194.990 182.426 192.431 204.901 197.094 184.770 202.122 206.614 197.308 196.012 189.869 191.430 191.164 188.416 203.893 208.362 213.012 211.627 178.654 173.481 193.754 195.913 170.932 185.384 192.586 178.563 179.394 192.110 209.969 208.533 189.077 195.051 182.943 182.120 210.834 208.431 197.115 188.494 189.137 204.332 202.412 193.790 188.903 185.906 200.295 196.114 199.324 236.109 216.494 204.941 204.249 190.842 218.435 223.760 214.310 217.883 209.410 216.279 210.531 190.517 204.154 216.355 224.016 221.647 200.811 203.536 224.976 221.050 186.156 201.309 221.155 216.117 208.005 215.640 221.975 221.570 213.462 193.757 195.188 203.778 206.792 218.731 216.151 208.350 208.350 211.568 214.373 224.224 209.324 165.729 195.941 211.443 205.244 222.846 210.726 211.457 212.378 199.052 219.045 233.735 220.553 196.513 189.160 190.507 204.684 221.141 221.514 231.134 243.027 234.594 205.491 194.067 199.951 231.087 266.960 237.950 236.096 249.248 232.867 240.815 262.229 274.530 261.897 235.004 258.509 268.622 244.500 249.603 244.706 271.149 299.358 270.041 278.887 303.038 314.090 320.623 327.293 325.143 316.090 309.981 316.173 352.825 384.592 392.797 409.813 418.600 452.453 508.727 527.873 519.909 571.671 642.073 650.066 734.030 812.570 872.734 961.665 1018.841 1155.593 1316.641 1427.790 1607.868 1816.415 2002.000 2186.597 2413.396 2576.745 2711.020 2792.522 2692.931 2486.210 2281.241 2150.234 2068.538 1925.663 1910.913 1966.805 1899.569 1811.367 1554.641 1292.795 1208.847 1075.126 885.751 771.858 744.299 656.727 602.729 599.064 588.648 537.226 480.964 444.666 436.760 446.571 437.999 414.763 400.937 397.338 366.394 340.169 334.764 340.789 352.307 345.101 320.745 302.708 304.113 297.525 294.035 303.989 300.165 257.695 255.654 299.197 301.958 277.229 283.535 319.306 340.758 350.964 353.829 342.739 324.225 328.989 341.926 327.978 287.835 270.293 281.462 296.634 306.321 323.240 327.965 312.249 288.894 269.999 241.454 244.041 255.147 230.477 232.076 231.857 224.433 229.776 233.621 233.503 226.749 225.345 245.690 232.546 223.726 244.101 248.381 266.013 232.740 193.225 252.556 247.008 230.126 239.195 225.899 212.216 218.407 221.789 209.915 229.577 252.915 240.295 209.845 227.556 253.722 252.120 228.159 216.703 237.813 239.968 209.182 196.527 207.317 220.552 225.682 221.791 200.016 199.917 206.375 191.311 198.391 201.978 201.053 207.019 205.589 210.263 199.674 182.264 201.470 186.743 169.455 181.885 191.375 191.934 197.019 199.923 187.234 184.775 194.068 200.235 192.760 182.463 196.293 205.252 186.997 180.263 154.489 171.421 229.379 205.257 172.050 180.010 199.217 183.052 177.003 173.931 172.349 185.181 182.367 181.245 178.059 165.803 181.964 179.683 178.820 201.950 186.744 174.150 166.600 160.476 181.096 183.616 179.063 188.328 195.033 181.669 175.105 181.532 178.651 173.975 162.571 158.567 175.679 188.324 202.158 208.601 199.156 192.439 183.120 177.306 174.579 163.400 179.041 197.166 185.540 165.969 192.056 212.127 188.318 164.901 195.035 197.411 164.990 164.934 181.627 202.214 207.458 192.354 182.508 170.311 174.805 195.286 188.557 186.691 196.199 207.115 211.156 184.577 174.873 187.347 178.688 184.413 193.190 192.435 188.470 183.450 180.871 175.668 172.660 191.812 191.491 177.827 182.401 201.112 207.026 204.473 209.947 217.208 193.961 179.849 194.281 202.214 196.117 196.274 200.839 198.437 208.677 191.127 179.204 206.519 193.500 177.565 183.942 190.887 177.524 189.631 193.692 180.531 206.177 209.704 194.984 195.639 211.719 210.427 226.209 241.597 215.989 213.919 204.569 182.641 184.941 214.623 219.931 196.970 189.161 219.869 225.749 204.722 201.179 230.578 237.648 228.756 231.214 239.649 225.826 223.265 239.497 238.106 214.097 216.332 233.974 235.353 255.352 250.264 229.799 239.056 273.718 280.876 260.653 247.964 256.375 257.143 269.663 306.987 331.610 302.961 309.998 330.382 284.184 312.416 354.539 340.276 313.904 367.928 392.900 376.912 387.835 422.622 458.746 488.313 514.374 540.456 571.322 595.516 617.485 651.919 670.960 726.612 832.392 927.454 979.069 1036.703 1143.188 1288.765 1435.468 1603.995 1776.698 1955.752 2212.470 2472.040 2753.542 3079.653 3378.178 3645.952 3759.291 3733.818 3696.370 3406.005 3093.368 2916.292 2776.516 2749.586 2745.999 2750.248 2735.124 2479.819 2263.743 2119.384 1882.260 1609.297 1373.290 1193.662 1070.649 1008.527 952.920 869.842 775.797 714.761 689.488 655.824 613.211 587.028 523.025 487.074 486.061 464.188 448.146 453.993 447.073 408.041 390.109 384.785 383.023 388.281 393.401 362.173 331.489 334.985 341.171 318.892 297.421 299.087 310.533 323.586 306.100 268.146 258.378 288.276 295.958 270.575 260.423 289.942 290.803 265.900 256.976 261.380 269.962 265.546 248.884 246.074 264.700 258.427 235.199 247.437 243.550 233.273 238.292 247.360 235.937 249.546 254.000 218.493 236.878 229.076 213.015 241.379 261.566 257.492 232.711 216.296 237.306 244.874 240.611 228.864 205.951 227.507 236.499 227.048 240.454 216.604 206.008 217.753 213.550 203.960 202.284 203.940 201.996 203.601 207.538 192.476 174.287 194.988 182.878 177.619 200.710 197.284 187.142 191.481 188.193 163.305 187.851 221.122 215.210 183.418 180.077 198.364 206.444 192.081 178.099 177.027 192.571 210.483 208.598 204.798 205.496 199.290 181.079 180.211 182.767 181.412 183.765 170.360 161.822 173.303 192.102 195.156 189.011 187.850 192.967 191.320 188.218 190.764 190.525 170.011 149.241 180.693 221.708 179.325 174.781 202.357 201.239 172.230 187.756 201.314 192.302 185.979 170.590 173.005 173.294 159.847 186.432 192.024 174.714 165.706 162.518 179.496 189.149 182.984 187.583 176.840 180.701 190.710 169.556 176.454 179.476 168.931 176.540 191.915 181.126 171.864 186.961 172.655 174.516 174.056 157.051 182.043 208.493 186.240 151.882 181.373 184.759 175.339 172.135 155.778 164.750 174.470 174.733 178.378 169.344 178.641 196.806 189.725 169.821 177.138 181.501 160.750 164.864 172.375 177.735 189.187 196.277 167.325 154.028 174.549 184.501 194.091 186.406 170.254 172.410 175.539 172.749 173.514 185.361 193.039 170.259 147.845 157.209 170.700 178.431 163.212 145.321 169.658 176.595 159.135 150.678 163.295 156.732 166.211 181.307 160.051 154.143 147.097 160.245 197.790 166.426 150.800 173.943 188.005 177.669 166.057 166.891 176.700 182.846 173.396 168.354 177.142 179.526 165.663 164.121 185.812 199.386 170.006 153.530 161.338 162.772 170.800 181.268 187.038 185.018 176.867 174.237 174.974 176.268 181.371 172.965 158.309 155.758 169.253 179.558 183.587 188.204 193.976 188.370 179.390 168.721 154.701 152.075 163.932 188.578 210.900 205.986 197.297 207.525 221.985 205.683 191.689 211.001 226.182 193.573 225.663 233.922 198.609 207.737 193.183 196.053 215.931 207.942 202.353 213.521 206.549 174.277 185.775 209.833 212.875 203.973 212.109 212.462 208.011 206.611 205.543 225.099 218.600 190.909 199.495 212.213 213.119 223.060 240.209 202.966 208.736 234.951 231.222 284.155 270.951 244.313 279.892 288.782 306.224 319.535 303.729 286.913 315.877 329.507 324.606 361.415 372.642 385.976 407.663 423.899 484.940 503.564 521.984 604.616 638.432 671.543 732.682 818.538 930.910 1010.442 1093.042 1218.451 1381.364 1648.334 1875.232 2090.537 2452.141 2707.613 2995.374 3292.133 3369.823 3286.028 3120.839 2908.809 2665.126 2442.333 2342.555 2303.519 2280.637 2366.494 2370.499 2325.578 2296.571 2173.164 1908.835 1597.858 1372.885 1251.526 1067.447 931.438 854.851 755.193 767.535 669.549 546.811 588.809 556.683 531.207 524.273 490.813 474.214 434.611 412.350 429.713 424.930 411.448 365.090 322.471 350.560 343.258 336.097 344.119 320.041 292.306 299.720 304.812 273.990 280.338 286.773 272.487 264.989 283.833 269.393 258.288 264.821 223.766 222.860 226.757 213.441 232.654 228.392 212.620 209.115 215.407 229.603 233.947 216.950 196.236 208.967 215.379 200.659 192.920 212.024 211.396 201.839 206.144 206.271 211.779 204.368 191.053 205.240 209.559 199.354 198.998 211.060 187.932 200.605 225.241 189.942 172.717 205.172 223.280 193.303 197.149 191.626 187.796 204.409 198.605 174.189 161.164 175.414 192.001 163.077 155.940 198.386 218.958 174.997 171.990 201.459 187.180 204.764 204.530 180.162 172.941 178.972 177.742 184.442 197.899 181.592 186.320 190.439 177.548 184.048 188.827 189.306 185.681 175.704 177.370 177.725 175.295 180.559 181.329 173.025 160.824 160.484 182.988 180.148 169.915 179.128 175.312 168.939 166.290 172.216 187.930 181.096 172.693 174.859 172.396 182.349 186.832 174.634 165.303 181.480 169.272 153.053 173.523 167.370 162.585 181.670 201.022 183.990 166.812 166.592 174.609 177.972 169.945 169.033 172.220 162.094 173.082 180.455 164.636 151.879 180.125 198.219 189.010 182.027 184.789 176.035 159.355 157.092 171.818 162.926 148.261 164.240 198.447 191.670 166.854 161.405 171.547 182.232 172.977 162.586 179.819 190.382 189.963 185.917 183.044 184.166 185.199 172.695 158.003 177.644 182.257 176.848 183.388 184.577 175.326 176.426 182.328 170.234 181.568 179.453 166.383 182.540 182.389 184.592 182.319 161.564 172.011 196.490 188.473 160.004 187.788 197.949 181.279 180.748 196.726 169.873 160.206 191.362 195.558 202.613 192.183 170.045 173.092 177.166 186.871 198.791 192.635 164.537 158.079 177.119 184.193 157.418 139.637 164.476 206.019 202.224 179.456 185.294 199.959 165.962 149.642 168.042 200.272 224.138 227.571 218.696 219.292 231.055 218.939 222.418 221.769 193.364 197.545 200.084 188.737 180.917 187.112 208.941 217.266 205.023 202.355 204.762 189.254 177.321 200.758 196.916 180.632 179.138 189.135 192.245 175.706 162.126 170.699 175.731 181.461 196.026 199.452 166.189 169.286 171.446 158.014 188.042 175.924 172.821 201.650 205.803 220.204 211.225 189.331 194.104 180.879 167.078 177.796 195.138 175.611 183.962 203.156 196.971 204.051 204.255 193.352 190.691 201.473 181.287 194.217 222.519 182.302 200.032 222.601 204.315 188.299 197.700 215.994 219.526 206.562 203.809 220.316 219.155 194.919 207.782 215.170 203.551 192.651 196.789 212.513 216.977 210.871 216.748 221.001 224.169 244.415 274.532 252.648 232.237 230.805 224.927 233.305 234.763 230.705 237.027 250.780 267.295 270.447 269.880 293.593 292.973 298.104 301.779 266.097 311.693 321.326 276.305 297.190 328.318 328.721 330.873 356.679 342.679 367.679 398.930 382.047 394.035 412.432 433.500 457.836 458.579 442.382 455.696 496.640 517.746 551.641 555.969 589.806 718.734 736.495 748.557 793.911 824.772 937.515 1062.021 1111.020 1125.081 1222.443 1205.017 1158.314 1190.444 1145.133 1034.218 1037.070 1127.146 1084.171 1072.236 1104.984 1119.858 1109.467 1122.534 1166.286 1190.696 1156.095 1111.415 1096.659 1082.957 1045.637 1037.339 1058.485 1089.970 1117.961 1155.802 1256.279 1306.939 1344.682 1546.454 1651.757 1796.208 2005.454 2130.660 2416.679 2702.963 2963.044 3265.619 3375.270 3594.148 3764.565 3599.534 3417.466 3234.524 3032.698 2869.681 2789.110 2658.601 2645.564 2762.878 2727.156 2680.880 2587.268 2466.558 2422.504 2282.473 2040.282 1800.299 1624.779 1454.480 1304.920 1181.476 1092.790 1067.221 952.197 852.066 866.976 827.903 789.529 760.593 716.012 677.500 683.308 651.155 583.186 587.424 618.183 587.091 534.467 545.023 536.178 521.502 518.600 509.979 484.123 481.419 458.082 421.242 488.442 500.561 468.374 464.993 468.756 493.128 476.123 449.441 502.313 492.245 458.064 465.702 488.972 467.209 458.260 477.602 487.729 490.545 496.119 494.335 493.080 527.876 544.681 577.915 609.490 554.267 605.963 656.887 641.078 682.934 711.164 749.057 786.531 782.078 816.923 898.156 960.881 982.273 1058.300 1167.332 1249.512 1318.559 1471.519 1671.462 1870.701 2049.540 2225.390 2466.201 2686.454 2914.768 3250.568 3390.245 3479.963 3509.178 3295.377 3123.143 2903.370 2676.267 2586.390 2506.208 2478.061 2488.332 2491.783 2507.616 2432.065 2321.370 2247.037 2134.170 1948.992 1750.688 1584.711 1433.636 1299.392 1164.614 1048.357 973.897 882.025 856.062 844.266 752.116 709.501 648.783 607.417 641.491 634.633 595.873 562.587 541.012 521.683 548.348 533.800 458.189 431.767 417.154 424.016 430.149 396.744 398.496 374.114 340.972 366.749 376.748 383.171 369.742 338.015 361.489 329.795 296.651 317.973 289.159 286.200 316.968 330.345 309.902 312.242 325.625 322.325 301.052 268.449 268.770 276.142 246.012 244.131 245.201 239.498 247.421 262.037 249.843 232.012 237.210 244.304 243.349 237.718 230.168 221.330 226.181 229.812 225.695 224.783 214.357 193.558 189.880 217.530 225.431 208.196 211.629 238.207 203.803 197.037 203.664 177.732 178.670 204.148 206.981 188.831 208.173 231.361 231.632 213.273 194.270 177.799 178.474 194.117 199.326 177.216 168.478 181.596 194.289 202.010 175.492 162.116 186.045 170.086 156.947 168.519 181.041 171.693 174.536 195.236 207.855 194.527 189.440 204.460 200.419 158.570 166.413 178.434 171.868 170.241 164.090 165.534 170.940 172.988 181.429 186.153 176.470 170.724 191.584 171.459 159.765 185.422 189.643 176.471 158.534 169.548 219.484 228.414 222.459 225.830 232.092 253.860 293.880 292.942 248.144 270.076 266.421 222.935 192.165 186.291 176.829 175.887 200.776 232.185 229.821 221.722 229.721 234.681 224.169 227.077 225.682 198.865 206.200 196.217 174.992 174.137 158.812 155.590 151.787 138.948 147.900 142.294 144.166 161.846 155.796 145.013 150.125 161.929 161.044 163.244 155.200 142.479 143.701 147.327 160.301 169.252 163.102 164.432 163.585 166.903 175.001 162.731 138.264 146.354 172.273 149.115 133.671 144.247 153.687 144.984 154.026 137.799 117.919 148.811 165.975 146.650 133.028 157.039 173.904 166.326 155.081 158.134 161.957 159.662 155.923 154.943 155.854 163.110 162.199 144.783 127.479 137.349 151.506 150.939 150.574 172.610 168.206 152.200 159.986 147.418 134.242 136.073 142.001 136.915 138.453 138.042 135.584 150.115 147.408 138.527 143.420 154.827 155.804 152.781 145.432 133.928 147.217 163.539 157.864 138.561 140.254 148.746 144.880 142.118 170.428 175.218 145.771 134.520 174.406 155.581 136.087 148.508 127.639 129.668 140.831 140.669 142.068 151.975 143.942 147.331 176.970 145.379 123.584 125.406 121.998 136.570 158.951 148.531 123.130 149.986 148.522 138.910 147.393 142.905 141.920 139.793 128.317 119.964 139.990 147.489 135.699 134.630 143.202 151.257 146.587 132.091 128.367 126.363 134.168 136.923 103.868 121.372 151.567 148.197 142.847 138.608 133.252 134.383 143.184 133.143 138.593 154.552 147.829 139.397 133.791 130.234 132.843 146.013 153.524 147.398 138.934 143.810 144.433 148.372 151.009 134.433 140.947 148.635 136.275 122.697 127.407 145.317 155.180 144.386 130.597 132.454 130.483 118.840 140.213 138.287 128.274 141.389 142.731 130.246 136.052 156.870 145.331 113.958 114.437 139.063 133.343 119.073 111.084 124.939 149.146 125.785 128.652 132.838 101.047 131.872 133.046 116.188 129.217 127.136 128.007 133.885 128.737 114.380 133.429 152.604 138.162 114.724 127.145 130.842 125.968 145.909 141.167 133.647 135.279 132.289 124.431 124.889 134.606 139.945 129.589 122.130 137.252 150.139 122.035 125.573 138.209 128.092 117.568 119.866 121.969 127.848 140.543 120.946 121.542 133.627 119.462 123.450 138.547 139.323 127.975 135.014 134.834 128.239 130.481 138.798 139.343 135.482 131.189 129.092 148.161 151.543 129.842 120.167 137.587 146.650 140.812 137.361 127.609 116.255 115.826 127.012 133.478 138.691 138.720 129.246 121.479 136.592 138.841 126.028 141.045 146.794 131.170 120.490 139.628 160.643 149.590 123.321 124.647 149.242 135.468 127.611 161.894 145.718 118.661 123.592 151.216 157.865 133.997 127.193 143.751 136.755 134.948 146.654 141.674 111.802 132.714 148.466 129.659 115.058 127.966 153.976 165.197 156.124 152.095 141.392 130.713 137.798 156.808 147.466 140.392 148.870 138.240 143.802 166.702 175.867 156.430 151.312 163.438 155.844 122.984 135.073 136.469 133.533 158.568 158.709 133.991 122.228 132.136 129.102 141.221 145.616 139.900 160.586 154.632 132.360 125.454 133.506 130.069 133.820 152.204 156.815 122.082 112.424 135.294 150.665 154.770 141.175 135.835 148.150 142.269 132.051 118.709 118.972 152.938 149.031 140.718 150.514 142.320 128.647 121.934 133.578 151.404 131.189 144.173 167.145 148.355 155.695 145.605 124.582 125.107 128.362 119.888 132.748 157.034 131.858 115.927 133.293 145.721 122.734 131.481 130.886 115.292 125.863 128.816 128.742 138.990 152.762 146.605 131.741 134.213 147.999 134.896 136.227 138.900 127.590 129.457 129.022 139.858 151.480 135.636 139.165 140.648 135.600 141.641 125.167 124.286 130.571 119.824 137.142 137.168 127.844 133.999 127.197 134.936 132.069 122.026 156.601 147.669 134.374 143.612 129.180 135.272 128.116 116.673 144.891 153.881 147.013 149.353 155.669 132.488 129.338 138.050 135.942 153.531 131.901 120.325 143.050 118.948 113.990 138.961 149.878 126.164 126.417 138.751 140.904 138.466 135.402 136.343 148.221 166.247 165.888 156.033 161.980 184.775 187.265 170.427 166.545 174.699 152.948 139.909 138.038 141.159 156.085 158.679 169.020 176.212 155.106 165.234 166.978 158.800 169.089 153.468 142.866 153.074 160.150 142.962 137.236 139.475 139.327 152.324 143.091 138.579 156.524 159.018 139.173 149.172 168.849 139.005 141.189 145.105 134.749 136.666 138.632 140.416 151.814 162.243 140.818 142.629 161.816 160.667 145.385 139.413 139.834 142.794 153.373 148.467 149.871 160.486 150.944 132.357 130.505 145.145 153.112 145.713 140.334 146.639 148.550 122.760 112.965 128.123 141.079 137.094 138.671 147.313 153.359 154.162 146.361 145.953 142.434 118.422 128.392 134.853 129.979 142.382 136.647 126.044 131.506 143.087 128.879 125.065 140.703 145.835 123.811 131.491 143.015 132.646 135.705 131.906 138.190 147.108 131.409 146.231 153.332 140.631 142.605 142.615 138.930 145.845 163.462 161.768 152.302 148.893 153.029 158.528 157.460 161.271 167.794 155.738 151.873 160.374 163.250 151.471 151.316 157.890 156.928 148.707 149.357 166.083 168.089 141.935 145.695 157.072 181.130 207.025 170.299 150.343 162.090 174.643 183.585 187.670 195.482 200.471 193.003 209.304 202.313 180.681 199.693 205.808 217.322 227.277 207.769 189.729 197.882 227.943 248.982 235.687 236.092 250.248 262.938 284.321 285.257 310.043 347.794 329.393 348.235 373.854 388.678 430.104 461.255 468.332 486.564 546.504 610.692 663.829 650.240 581.662 597.562 619.118 585.813 529.384 513.115 511.775 494.989 461.552 441.317 468.276 489.048 488.155 502.769 500.725 498.920 491.489 458.869 431.991 397.569 376.639 373.741 328.202 314.106 313.068 289.593 289.606 277.964 265.826 269.307 264.216 238.293 231.784 251.592 258.913 255.749 240.298 233.432 246.799 234.424 227.162 242.599 263.375 269.444 243.727 231.237 267.076 303.889 289.621 266.178 272.916 286.209 310.618 311.749 296.731 307.823 307.165 330.065 358.418 336.507 313.748 346.691 395.172 397.416 393.364 422.328 456.774 460.931 461.298 498.845 521.006 543.758 655.417 682.109 705.251 793.545 873.725 984.867 1041.391 1089.633 1240.832 1348.963 1360.103 1342.578 1337.358 1257.678 1200.474 1164.202 1097.569 1038.184 983.357 959.100 961.440 939.428 928.391 951.594 986.088 1010.054 1070.254 1025.749 918.903 912.658 868.931 836.073 758.377 593.784 566.442 584.165 557.614 505.088 470.831 430.868 403.373 401.843 388.303 354.119 344.601 356.701 340.677 343.683 323.855 281.768 278.115 295.823 292.667 280.420 286.017 276.093 266.757 262.001 251.139 239.299 241.713 252.839 259.135 255.051 235.297 238.472 263.496 258.814 247.322 252.666 281.383 315.506 314.451 289.624 285.699 318.589 335.457 333.410 329.702 325.269 307.915 323.642 323.241 286.329 297.421 303.125 300.212 305.483 300.710 269.266 264.384 286.934 274.066 238.657 262.330 296.335 259.361 257.550 248.244 226.133 224.037 221.503 231.040 222.253 189.371 190.351 194.449 182.093 169.889 180.722 192.090 193.226 185.316 172.898 163.574 166.221 172.448 167.793 158.506 147.428 145.290 155.679 160.358 162.285 160.443 146.429 124.699 139.273 158.666 152.253 147.725 151.234 146.604 136.374 139.299 141.798 149.045 156.453 153.312 151.629 141.776 144.809 163.197 137.842 137.710 149.799 133.749 126.982 128.732 137.388 147.404 145.164 134.040 127.556 127.959 130.129 146.530 149.508 132.511 125.874 145.746 149.229 139.127 146.454 153.469 148.079 149.123 159.992 146.009 137.116 150.565 167.381 157.352 134.178 123.125 135.787 154.022 138.928 136.824 151.770 144.474 148.832 148.045 134.365 125.107 129.063 132.087 142.758 160.999 151.508 131.442 123.294 129.465 134.731 133.682 136.855 145.832 147.603 141.783 132.336 137.319 154.775 128.016 123.263 134.608 120.615 146.259 143.699 125.985 139.889 144.223 144.157 140.980 141.621 158.142 147.198 141.739 150.257 130.517 131.710 131.385 123.201 129.523 114.850 115.034 129.780 132.262 147.866 141.023 127.033 139.706 150.779 135.809 127.653 135.686 114.238 113.750 132.693 142.195 135.642 123.325 126.932 138.772 134.755 134.568 147.171 149.332 129.828 133.889 136.080 145.295 166.978 145.785 131.501 144.317 164.631 172.241 151.131 151.845 194.109 222.384 218.476 222.044 246.678 263.306 269.281 255.634 219.644 181.135 174.990 176.734 163.700 149.928 166.125 174.439 176.236 187.226 191.694 199.211 212.813 219.759 211.498 219.145 236.000 226.229 184.777 185.119 185.226 169.029 170.497 173.591 173.788 167.090 159.826 170.818 159.099 156.250 181.148 168.907 167.995 181.767 189.504 188.387 162.102 183.560 225.010 185.611 183.664 208.596 212.281 196.282 194.577 203.521 215.527 232.903 253.749 254.545 269.669 289.743 234.775 265.923 312.717 300.404 331.664 347.884 375.046 411.804 405.011 425.282 470.483 512.146 555.462 634.518 706.735 763.271 844.672 950.428 940.615 910.825 942.966 867.783 853.964 853.783 774.696 706.776 676.107 634.297 590.100 610.742 647.355 682.132 699.201 688.741 697.389 733.165 743.775 710.934 724.306 733.899 692.555 624.378 588.171 563.571 581.656 627.894 614.517 625.949 644.297 630.637 629.632 705.539 709.848 653.360 676.643 642.408 629.097 609.414 520.516 525.439 498.777 447.312 462.555 485.528 480.741 509.204 552.336 489.854 492.428 524.143 512.654 506.639 501.795 486.932 445.155 394.933 425.969 433.608 422.383 454.403 408.638 390.987 429.627 463.297 492.602 527.690 526.223 500.239 537.951 548.717 565.337 590.750 539.569 505.595 485.671 456.706 437.520 432.340 420.402 403.251 394.175 383.110 415.590 440.541 406.866 399.466 395.227 376.684 358.698 357.798 365.828 353.707 326.458 315.926 281.942 272.916 278.959 238.905 241.478 246.800 226.635 213.444 218.018 241.964 257.932 246.572 233.565 209.772 185.974 183.178 198.632 208.016 204.419 194.059 182.514 172.727 167.518 181.011 208.721 184.893 164.474 164.220 153.374 173.489 167.104 152.048 167.093 146.998 155.464 174.313 161.885 161.229 161.438 164.785 179.280 189.051 161.792 155.199 174.170 155.261 150.148 160.543 166.151 158.735 144.369 157.350 172.914 155.902 149.374 147.864 159.905 180.011 164.346 146.285 143.348 148.359 149.329 134.677 137.124 156.056 152.529 156.367 157.707 155.743 157.762 134.297 152.444 167.687 125.730 155.247 173.443 157.815 145.099 124.978 142.598 159.137 136.536 126.074 167.973 178.862 142.820 150.213 156.541 156.566 160.961 160.650 141.672 142.478 154.424 144.664 143.643 154.419 159.708 155.974 161.815 149.982 139.802 150.473 153.406 146.308 156.335 174.280 160.901 155.171 155.130 148.635 147.851 171.948 170.786 157.625 177.487 185.218 184.805 179.189 175.738 194.527 172.241 157.372 189.952 193.927 182.832 181.994 196.858 211.504 204.991 206.826 229.890 244.310 232.914 241.391 274.916 296.679 306.451 310.118 335.753 370.951 343.379 346.131 363.820 342.167 323.625 337.001 343.899 331.790 332.534 291.596 264.906 290.300 317.132 303.434 279.383 282.888 304.412 295.033 303.335 308.537 274.933 273.832 299.446 280.398 229.825 261.644 249.756 221.763 233.922 231.848 209.903 201.038 208.375 203.236 196.583 181.291 168.325 176.702 183.590 167.210 154.286 163.122 148.560 155.469 168.629 160.976 166.201 156.182 145.821 150.136 145.349 135.381 134.739 142.910 148.481 157.573 142.285 124.075 142.215 146.516 152.326 151.495 129.752 131.298 147.088 143.966 124.974 136.732 147.832 151.932 152.522 141.153 145.513 154.421 151.050 142.888 140.369 126.564 128.058 169.889 166.245 136.743 123.375 137.399 161.336 150.368 130.723 143.931 162.164 159.462 161.256 169.373 141.845 134.844 149.679 158.198 153.365 149.943 165.857 178.191 162.676 172.410 172.200 154.892 156.845 177.113 170.846 149.608 151.841 166.656 155.701 149.922 164.022 151.979 164.355 190.289 199.145 190.917 169.126 175.313 195.786 185.653 192.791 191.083 175.315 172.785 178.421 192.366 200.121 195.988 201.115 194.179 197.731 219.398 213.296 205.783 207.411 222.741 249.149 234.531 243.601 273.835 260.349 291.238 315.128 309.154 310.072 311.052 348.843 394.897 410.482 434.385 441.656 457.530 503.416 547.347 624.432 671.677 688.516 767.464 812.094 842.461 872.864 862.189 846.442 847.199 807.318 701.598 671.160 681.025 642.639 567.348 581.687 625.915 636.284 623.971 640.589 668.449 676.178 673.901 692.080 676.546 641.748 600.180 544.272 526.468 507.761 453.401 405.257 435.910 418.855 368.051 367.420 339.367 317.428 308.147 294.849 287.488 269.177 236.125 219.715 249.490 261.581 254.961 242.232 218.215 209.826 219.351 228.623 218.621 193.603 203.729 229.289 221.801 209.555 210.412 216.071 221.082 235.208 225.576 206.588 201.908 203.913 214.171 200.429 176.335 191.121 198.365 215.137 235.194 229.242 235.319 228.637 230.522 261.313 245.178 219.319 226.943 255.972 260.960 264.832 262.721 257.553 279.844 289.739 286.953 288.532 299.783 331.166 384.803 429.961 440.583 459.110 474.552 484.042 502.467 522.968 531.655 550.117 561.341 493.000 477.057 494.515 480.343 473.327 458.494 434.524 411.712 398.374 404.036 410.499 404.213 398.756 420.003 440.168 427.297 400.998 421.726 401.315 360.769 356.283 324.860 307.917 310.971 294.340 246.729 248.601 263.023 247.205 231.766 214.404 233.133 255.673 219.562 208.329 197.397 175.470 170.906 172.353 169.970 176.103 194.670 196.071 185.044 173.495 165.762 159.864 159.569 169.170 174.295 154.197 137.567 156.353 180.404 162.454 158.265 144.620 120.666 126.546 158.692 160.371 143.938 142.380 123.686 130.453 144.104 140.098 150.699 139.967 136.903 148.556 127.059 123.041 132.951 134.637 129.018 125.033 129.295 126.085 113.980 140.893 134.163 112.662 133.238 138.475 143.799 138.612 117.827 122.474 131.420 132.910 130.814 132.429 147.125 134.706 103.982 113.278 131.336 123.380 102.241 105.093 125.136 119.833 112.341 129.887 115.682 124.240 133.263 114.973 127.582 116.132 107.269 126.956 129.320 130.060 122.110 112.095 123.116 126.865 126.127 125.344 118.124 110.850 119.946 139.385 143.701 121.092 104.074 112.131 127.001 117.162 115.356 128.300 133.629 122.844 134.824 128.011 103.586 121.255 121.758 125.682 134.066 116.032 111.540 124.356 133.512 130.058 134.133 135.855 127.571 119.009 121.771 108.047 109.403 131.173 112.833 100.562 104.196 116.087 133.350 122.734 105.661 107.836 122.464 127.261 127.488 134.596 140.631 120.732 109.704 116.250 116.177 104.579 132.839 144.841 111.192 121.751 150.420 139.717 105.429 114.738 122.585 121.418 117.989 112.103 116.692 121.720 118.716 112.368 112.195 121.777 126.319 119.090 121.462 123.729 120.604 124.545 144.595 139.909 131.792 135.727 128.590 143.627 177.549 194.812 180.378 185.691 205.020 206.202 182.083 167.501 154.244 141.434 137.103 135.422 144.067 150.015 141.718 130.441 113.361 115.575 139.780 150.759 155.102 149.781 140.251 141.395 145.591 157.449 157.913 131.291 121.442 127.342 136.325 141.011 134.201 113.822 117.165 144.144 129.372 122.293 126.905 128.420 137.794 146.161 165.140 190.693 199.600 199.626 191.612 171.989 143.951 123.288 121.894 132.969 136.381 125.001 140.911 147.488 127.031 153.638 155.821 159.869 190.215 191.386 203.547 210.108 197.454 190.047 181.367 154.424 131.834 138.132 126.550 135.437 136.878 105.912 140.643 145.195 126.962 135.997 125.516 149.369 177.072 165.777 147.744 141.573 126.125 112.832 135.151 133.156 116.928 115.122 122.303 110.970 110.237 120.112 114.702 106.844 121.204 130.757 119.006 130.000 124.286 109.645 112.450 120.500 117.224 116.999 125.699 127.109 127.278 128.989 131.440 132.302 125.946 107.801 109.169 139.177 128.574 134.626 145.291 121.335 111.244 122.470 139.421 145.956 141.275 145.222 143.837 130.916 126.932 129.477 143.516 152.213 136.724 133.778 130.522 126.638 142.748 170.366 168.379 152.824 156.866 162.180 179.457 204.337 219.219 216.888 213.348 238.363 267.305 247.976 252.454 265.310 262.399 257.490 243.454 229.591 226.375 225.211 205.018 212.074 221.631 203.093 215.708 197.886 189.697 218.155 199.224 208.874 219.041 213.505 243.554 219.344 187.344 198.111 218.233 217.447 196.297 179.534 182.623 179.650 159.034 153.157 179.165 182.436 152.874 129.477 142.521 167.672 164.895 139.509 134.700 168.503 158.135 141.734 145.322 132.293 135.042 142.762 141.137 137.856 141.784 133.760 123.133 132.243 146.586 142.305 130.469 135.178 148.786 127.575 121.844 149.949 141.997 138.082 145.193 146.433 137.630 133.376 151.501 161.988 142.779 166.800 162.166 135.303 140.156 125.568 128.647 150.025 162.032 166.309 156.469 145.000 145.000 145.000</intensities>
      </dataPoints>
    </scan>
  </xrdMeasurement>
</xrdMeasurements>