<?xml version="1.0" encoding="utf-8" standalone="no"?>
<xrdMeasurements xmlns="http://www.xrdml.com/XRDMeasurement/1.0" xmlns:xsi="http://www.w3.org/2001/XMLSchema-instance" xsi:schemaLocation="http://www.xrdml.com/XRDMeasurement/1.3 http://www.xrdml.com/XRDMeasurement/1.3/XRDMeasurement.xsd" status="Completed">
  <sample type="To be analyzed">
    <id>000000-0000 - Converted with PowDLL</id>
    <name>Carbonates_1001</name>
  </sample>
  <xrdMeasurement measurementType="Scan" status="Completed">
    <usedWavelength intended="K-Alpha">
      <kAlpha1 unit="Angstrom">1.54056</kAlpha1>
      <kAlpha2 unit="Angstrom">1.54439</kAlpha2>
      <kBeta unit="Angstrom">1.3922500</kBeta>
      <ratioKAlpha2KAlpha1>0.5</ratioKAlpha2KAlpha1>
    </usedWavelength>
    <!--KBeta value not accurate but needed by the xrdml format. Please change.-->
    <scan appendNumber="0" mode="Continuous" scanAxis="Gonio" status="Completed">
      <header>
        <startTimeStamp>2021-12-21T20:42:53+00:00</startTimeStamp>
        <endTimeStamp>2021-12-21T20:42:53+00:00</endTimeStamp>
        <!--Time/Date values are not accurate but needed by the xrdml format-->
        <author>
          <name>PowDLL</name>
        </author>
        <source>
          <applicationSoftware version="2.43">PowDLL</applicationSoftware>
        </source>
      </header>
      <dataPoints>
        <positions axis="2Theta" unit="deg">
          <startPosition>4.000</startPosition>
          <endPosition>70.010</endPosition>
        </positions>
        <commonCountingTime unit="seconds">1.00</commonCountingTime>
        <!--Time is not accurate but needed by the xrdml format. Please change.-->
        <intensities unit="counts">2140.203 2183.519 2195.158 2142.110 2126.076 2067.781 1993.726 2053.847 1968.886 1962.375 2060.382 1984.331 1967.399 1964.597 1946.939 1970.614 1967.240 1971.978 1908.878 1803.272 1930.331 1938.853 1889.894 1944.148 1886.011 1848.529 1838.488 1823.506 1842.782 1818.900 1794.321 1828.479 1901.483 1944.036 1880.758 1816.690 1855.498 1792.838 1774.447 1817.710 1808.995 1793.764 1807.992 1812.769 1788.847 1792.700 1780.783 1752.671 1736.447 1739.091 1753.642 1758.363 1747.243 1736.929 1739.461 1774.047 1787.032 1731.971 1719.954 1733.100 1753.157 1776.764 1756.986 1711.347 1686.186 1707.199 1745.040 1730.927 1717.028 1718.851 1665.109 1687.339 1711.796 1694.137 1714.238 1704.865 1708.501 1721.179 1685.119 1655.453 1652.635 1665.297 1652.474 1582.492 1618.782 1679.500 1666.905 1731.737 1695.916 1649.307 1680.004 1637.885 1613.916 1616.764 1617.352 1611.293 1561.370 1542.639 1595.563 1647.776 1606.926 1574.456 1572.726 1550.669 1560.503 1580.721 1614.898 1642.216 1589.835 1587.053 1576.426 1520.286 1554.026 1574.102 1583.130 1564.114 1474.892 1523.853 1575.004 1549.094 1554.289 1555.108 1502.867 1471.382 1502.586 1436.310 1464.245 1521.033 1458.150 1445.145 1496.426 1499.985 1448.529 1484.823 1506.859 1501.540 1505.813 1509.366 1483.867 1437.734 1441.746 1516.407 1493.105 1480.874 1489.284 1436.927 1436.437 1432.031 1438.213 1478.722 1452.205 1435.076 1469.377 1505.168 1482.638 1475.586 1483.625 1485.682 1495.583 1486.866 1463.175 1421.182 1374.753 1416.786 1436.683 1393.615 1370.774 1391.255 1415.748 1396.273 1355.228 1391.410 1450.339 1474.673 1445.650 1385.085 1395.143 1408.874 1373.705 1361.103 1343.835 1376.054 1429.519 1401.337 1371.039 1388.144 1389.021 1334.428 1374.396 1428.069 1403.637 1349.237 1388.108 1375.755 1319.588 1319.388 1356.170 1376.020 1359.764 1319.589 1305.154 1408.209 1364.581 1252.724 1405.298 1358.973 1310.454 1348.612 1306.313 1358.818 1389.756 1349.655 1324.099 1345.402 1391.982 1391.459 1348.940 1378.575 1389.824 1357.734 1334.950 1353.230 1359.847 1334.649 1314.076 1333.011 1332.838 1298.643 1271.597 1287.159 1303.735 1295.906 1265.075 1249.622 1297.807 1307.337 1265.622 1244.990 1276.247 1317.830 1312.727 1273.634 1281.587 1324.935 1336.654 1316.009 1318.100 1290.356 1274.417 1283.647 1287.286 1319.745 1311.285 1276.722 1289.047 1308.921 1261.622 1216.634 1232.023 1207.973 1225.515 1253.888 1249.254 1254.377 1192.844 1178.522 1254.289 1286.960 1289.480 1265.835 1237.049 1234.664 1236.085 1246.429 1249.917 1240.207 1263.013 1233.022 1212.113 1264.441 1256.054 1233.819 1176.508 1127.352 1225.618 1250.278 1215.641 1223.612 1244.477 1206.481 1196.350 1239.909 1248.566 1218.921 1195.658 1226.207 1264.341 1173.526 1206.350 1268.258 1185.231 1206.439 1222.528 1194.069 1196.295 1241.571 1183.741 1175.239 1251.552 1202.252 1204.384 1226.151 1203.477 1171.060 1134.635 1150.952 1214.611 1243.836 1195.692 1193.658 1213.996 1189.053 1216.349 1219.329 1196.209 1187.752 1176.410 1182.623 1238.237 1275.649 1193.939 1165.093 1222.645 1246.391 1168.489 1176.375 1181.622 1098.736 1048.783 1212.943 1217.648 1140.010 1212.879 1128.889 1133.840 1189.601 1150.517 1155.244 1173.997 1187.058 1180.659 1133.754 1111.346 1133.050 1146.977 1117.757 1145.720 1172.552 1164.733 1183.762 1252.035 1230.576 1153.491 1149.940 1162.088 1095.202 1063.379 1141.525 1160.586 1163.844 1151.196 1150.345 1215.892 1147.255 1093.952 1132.864 1117.920 1145.248 1143.324 1116.568 1136.328 1096.111 1129.965 1187.875 1142.350 1130.086 1100.027 1092.728 1146.008 1137.862 1074.358 1062.724 1103.319 1081.201 1136.061 1164.686 1101.805 1069.085 1068.200 1086.856 1091.132 1071.132 1107.529 1140.990 1103.017 1039.654 1087.845 1145.395 1142.725 1120.035 1134.128 1129.054 1071.399 1029.860 1094.910 1123.891 1131.503 1126.759 1062.145 1091.844 1103.347 1073.885 1106.690 1083.138 1091.923 1109.832 1062.343 1086.137 1092.845 1064.346 1063.727 1091.188 1120.428 1133.058 1127.508 1109.309 1075.686 1092.314 1125.323 1074.254 1101.340 1118.598 1060.527 1026.767 1072.711 1081.664 1050.027 1056.183 1042.303 1063.668 1084.172 1051.665 1050.769 1095.403 1123.156 1094.496 1054.366 1039.730 1034.724 1035.591 1060.436 1054.538 1041.973 1038.399 1014.570 982.938 1024.855 1091.202 1079.336 1061.890 1049.029 1033.509 1018.437 1014.591 1050.168 1073.173 1041.931 1018.067 1053.246 1052.908 999.889 1016.897 1035.162 1009.377 984.587 1021.308 1056.791 1051.620 1038.565 1050.282 1028.827 1012.615 1012.236 1016.112 1050.068 1063.515 1053.948 1041.620 1021.821 1038.257 1031.386 977.569 959.046 965.672 1002.030 1041.853 1026.527 965.334 940.294 981.429 1025.377 999.490 993.225 1001.962 987.100 1028.872 996.969 984.458 1044.906 973.116 1006.416 1061.884 997.051 933.383 952.491 1025.968 1036.050 947.271 1003.218 1058.039 1032.655 1033.021 1025.005 1022.842 996.561 938.414 951.655 950.519 913.931 921.121 1006.502 995.849 953.167 966.161 949.522 942.326 948.776 953.517 954.221 940.765 913.234 905.970 943.937 969.696 962.038 963.213 989.882 963.848 947.871 953.747 958.885 984.180 978.471 951.083 949.026 982.008 1000.392 991.887 962.419 926.994 940.349 961.259 951.687 935.921 949.923 950.294 952.235 970.764 910.026 889.626 938.205 979.663 974.572 910.003 869.103 898.686 922.476 912.775 911.417 924.970 907.515 896.287 934.915 951.530 884.146 920.693 935.495 894.245 906.847 949.932 964.687 942.981 912.687 896.232 937.353 957.499 915.911 906.225 877.905 885.945 932.901 919.484 919.491 930.335 926.698 908.915 873.439 885.527 924.974 930.023 949.259 933.910 875.236 843.452 895.698 908.165 870.680 873.343 936.727 912.156 890.630 915.527 867.955 902.570 918.213 865.235 862.471 890.592 913.454 909.375 876.335 844.216 901.147 932.430 847.144 851.711 869.286 878.769 907.444 906.627 854.636 832.433 866.078 876.323 894.837 887.409 864.963 878.939 851.316 861.067 896.253 875.193 883.655 865.885 847.522 886.231 898.847 861.608 856.611 900.128 867.118 831.036 834.409 857.585 866.801 845.258 850.327 869.787 838.075 847.525 860.822 859.631 872.891 857.444 834.733 831.274 830.266 794.224 799.101 839.253 842.889 799.160 812.118 867.671 888.471 852.905 807.697 827.847 875.512 845.439 823.617 846.028 862.071 822.007 788.022 804.224 837.053 844.319 858.550 842.184 824.991 837.986 824.541 806.923 778.163 763.500 819.156 823.859 816.736 844.911 847.565 804.075 792.026 816.138 803.721 775.588 772.026 793.562 813.779 824.242 815.181 821.021 854.719 853.535 826.036 803.226 805.769 821.753 796.161 786.486 793.036 745.889 781.084 871.672 867.000 739.975 762.760 787.761 760.683 779.920 776.774 781.612 783.096 759.315 767.444 817.313 816.873 748.084 743.725 790.864 810.543 792.085 795.244 784.073 779.396 772.703 750.205 814.316 823.251 778.704 800.979 804.129 793.323 807.053 832.048 798.813 748.106 730.654 742.176 749.280 809.907 823.610 758.575 748.455 767.933 781.530 805.687 843.683 791.762 776.708 805.119 773.757 769.075 794.161 799.033 772.581 775.309 778.617 748.431 725.501 778.566 766.425 734.713 751.250 761.418 789.944 786.800 765.937 794.564 780.721 746.120 746.364 784.895 809.625 801.270 786.055 787.924 782.391 761.570 774.488 822.339 808.673 761.429 761.516 789.363 753.500 780.126 787.687 748.229 769.392 778.818 757.613 735.489 736.861 747.824 751.734 753.313 758.996 751.018 733.497 722.039 722.004 718.152 701.137 710.145 744.198 743.944 752.471 736.515 698.403 699.311 697.898 722.376 736.853 688.729 695.728 738.823 724.978 657.363 693.104 738.016 722.508 692.010 719.813 757.101 752.966 717.249 702.209 707.502 728.982 739.842 709.771 683.293 677.428 677.129 679.513 720.272 713.314 675.819 684.266 687.891 707.146 708.406 680.993 699.800 641.261 603.112 668.941 692.813 673.883 685.446 708.371 667.294 691.381 732.921 715.829 671.980 688.369 694.332 664.553 646.884 642.864 664.510 684.076 673.328 660.163 663.051 670.673 677.617 699.502 711.965 700.288 692.252 708.599 657.984 616.488 638.284 663.927 655.109 643.946 665.079 695.925 666.757 637.220 643.282 656.950 653.419 687.932 700.337 662.541 675.455 658.588 642.305 672.608 699.565 674.909 649.234 649.945 647.574 654.352 645.069 623.753 627.689 658.687 656.659 640.229 647.138 628.900 617.721 617.017 614.044 623.732 642.935 639.346 614.630 617.215 644.296 660.562 652.008 635.263 616.713 616.322 632.245 637.911 621.663 625.194 657.545 659.366 578.831 600.091 665.914 649.594 631.348 617.246 624.101 646.990 643.037 623.340 607.780 623.257 666.317 648.250 605.609 598.561 619.349 606.957 605.494 632.698 643.951 608.664 611.320 627.546 604.840 598.265 621.345 615.143 593.222 641.510 629.372 604.637 610.120 601.746 651.313 653.881 606.317 609.825 598.745 609.197 636.039 620.771 566.858 571.328 620.559 633.018 597.175 569.651 566.576 574.697 589.942 611.788 628.175 613.486 573.410 598.634 614.806 598.291 599.692 560.318 567.896 626.572 648.465 623.600 598.118 603.004 613.136 578.872 571.890 597.719 610.908 595.539 579.186 587.140 596.975 579.231 606.940 618.745 586.645 565.925 559.538 590.775 617.188 588.627 567.866 575.996 577.011 557.107 571.171 594.639 597.774 576.826 553.642 561.435 577.401 572.625 558.783 564.946 569.737 572.130 593.518 601.270 607.458 594.242 552.678 558.947 555.566 554.379 577.129 551.193 582.690 586.714 535.450 602.485 570.124 552.346 623.091 594.415 547.036 533.608 555.184 584.763 573.864 573.316 576.183 547.860 565.936 593.155 589.634 568.472 565.215 561.880 579.067 595.257 539.077 564.937 586.812 543.302 554.930 547.641 568.051 587.248 518.667 528.812 566.089 551.727 528.446 589.375 591.374 553.570 565.496 529.798 550.277 579.623 556.976 577.408 550.756 529.810 551.195 527.678 513.678 544.179 561.883 508.863 503.367 536.599 561.336 570.152 575.480 550.817 529.928 544.804 536.035 560.249 576.825 534.589 502.211 494.700 534.342 579.292 547.426 548.500 571.171 563.026 532.691 516.454 509.228 509.632 522.221 522.989 541.910 555.416 532.907 532.151 527.054 511.854 503.997 505.121 529.515 552.205 540.099 509.687 538.883 556.494 519.477 499.742 511.648 514.215 518.533 552.388 537.592 519.330 533.500 551.831 537.546 515.456 503.200 501.950 512.556 514.422 507.341 501.784 499.285 498.529 497.346 498.537 507.599 517.803 506.731 493.371 506.466 497.814 505.852 519.124 496.733 491.061 537.291 555.950 497.846 474.366 491.598 512.146 516.019 521.035 545.645 533.046 492.510 511.816 530.677 521.247 505.894 505.111 487.468 469.052 473.525 493.877 496.125 491.403 476.123 456.977 476.731 488.119 499.285 518.012 495.706 464.812 461.151 477.017 488.271 533.027 530.853 488.186 504.882 519.767 499.419 458.184 452.399 529.242 510.024 454.579 500.540 510.837 469.123 467.353 515.447 492.897 485.419 501.079 496.384 479.214 508.444 518.317 505.961 526.509 465.013 452.579 503.217 496.883 486.441 502.803 498.826 459.495 478.161 479.092 484.076 522.336 510.028 488.503 484.220 489.388 487.983 470.248 474.943 482.066 446.529 470.024 478.500 453.768 462.631 466.803 453.718 443.471 456.804 483.598 494.887 475.541 464.284 513.095 496.646 444.844 447.177 484.892 469.586 446.590 456.431 462.393 463.908 451.256 444.788 467.633 475.271 464.693 452.918 463.050 499.880 455.179 422.672 476.054 453.785 453.996 468.490 468.268 495.797 454.978 442.987 489.878 476.119 457.754 460.755 459.172 440.872 460.990 463.822 445.758 451.320 459.695 464.613 462.062 457.974 468.794 467.363 452.438 456.491 491.676 473.311 467.889 492.672 465.561 478.491 484.272 454.017 435.643 427.037 432.046 463.575 494.732 450.403 430.870 464.498 479.299 434.051 422.039 443.937 449.838 439.569 429.791 446.398 454.004 407.888 436.231 476.888 465.020 446.001 460.069 450.633 422.640 430.438 447.001 439.826 428.571 444.434 467.331 461.333 421.578 400.789 452.892 468.912 457.434 455.201 437.239 418.663 460.926 503.411 449.763 449.431 443.561 423.609 441.908 421.567 427.288 440.907 422.905 447.698 442.113 440.464 466.858 432.308 431.469 427.256 402.415 436.810 447.536 428.216 421.158 438.292 435.169 415.504 424.021 466.121 459.066 472.231 479.599 438.639 452.443 439.923 415.333 438.799 464.486 410.729 398.357 442.030 384.951 419.557 428.432 379.627 421.049 406.435 413.947 433.423 380.862 399.520 438.003 433.240 403.028 397.708 407.020 396.319 376.036 400.770 408.881 389.876 385.136 411.170 403.813 397.031 404.068 394.068 431.977 418.002 380.146 427.667 430.391 410.539 411.353 421.902 413.094 403.521 415.985 426.926 387.420 379.837 396.046 401.677 410.103 383.174 395.364 431.291 392.945 413.019 403.397 369.170 415.204 423.067 411.116 420.611 429.293 394.485 429.199 462.847 407.203 390.476 404.821 400.648 387.604 411.955 384.104 377.070 409.540 387.145 400.756 406.721 387.444 394.522 399.177 385.106 389.482 423.395 405.196 413.254 433.354 407.408 383.384 385.967 398.216 388.707 356.119 361.254 385.454 391.907 386.935 387.488 409.817 416.058 370.948 362.037 383.922 398.142 392.668 389.342 404.029 399.839 367.274 381.679 407.800 410.593 392.168 370.833 345.055 344.589 372.563 389.491 398.402 384.571 378.093 410.471 389.758 358.318 359.518 383.031 416.638 425.858 415.137 398.877 366.512 387.215 411.875 404.485 436.953 411.858 388.437 410.931 402.738 405.370 409.829 404.514 402.201 390.930 394.803 408.415 407.061 408.547 395.573 389.239 402.136 384.116 397.542 419.140 403.549 394.293 418.033 414.709 390.924 435.112 447.051 426.918 419.349 430.717 440.448 438.131 427.812 421.075 424.842 427.562 421.656 414.094 417.401 419.551 423.416 424.821 403.149 403.203 421.873 422.793 400.454 411.745 409.951 387.371 403.142 408.460 407.825 412.915 409.774 388.608 390.255 407.738 405.457 395.458 384.728 403.976 439.032 412.193 387.956 379.225 380.195 406.852 401.554 393.880 399.313 390.240 416.382 411.841 380.986 392.061 385.224 375.896 377.504 381.469 393.458 401.872 388.586 358.062 352.554 403.306 411.074 363.485 405.131 443.135 408.208 371.654 425.218 417.352 378.086 370.835 385.499 401.553 400.560 383.195 369.180 375.204 373.682 377.862 408.640 427.974 393.097 378.129 406.086 376.865 366.113 376.498 376.545 373.845 387.340 402.872 389.297 359.758 404.411 434.798 416.327 399.431 386.109 415.498 443.650 425.313 426.787 459.061 476.669 471.364 493.835 490.129 437.222 408.594 470.875 464.865 442.312 433.813 384.261 375.384 387.190 385.162 364.103 329.394 354.643 390.405 371.352 378.823 396.275 380.976 346.496 352.055 349.839 366.132 381.469 336.654 397.763 425.193 372.999 390.135 408.320 389.140 369.711 375.450 342.857 359.645 399.730 393.014 403.310 381.049 354.839 372.662 397.723 409.521 403.892 392.370 394.135 408.746 392.732 359.830 372.326 399.931 408.956 396.802 382.203 375.775 381.563 372.557 353.456 389.494 377.124 349.487 367.142 360.958 368.317 365.240 338.729 342.664 369.563 376.992 351.738 328.693 340.922 362.603 378.570 388.970 365.749 354.092 362.872 363.234 357.720 359.007 355.858 339.889 336.054 361.240 360.134 327.091 339.969 351.872 351.558 346.896 333.256 319.798 352.665 376.107 328.959 355.214 360.882 336.741 356.669 365.832 354.752 370.902 401.009 349.436 343.994 354.149 325.997 332.354 355.960 374.151 357.626 297.763 282.999 342.279 390.846 352.924 337.144 329.388 324.815 341.270 343.847 360.376 358.369 322.149 332.499 343.298 335.085 330.236 340.141 333.695 321.517 338.269 377.048 350.039 340.068 372.527 363.489 325.379 314.592 329.775 345.417 384.449 356.811 322.131 352.734 340.205 334.266 342.958 351.872 378.552 379.893 358.425 338.261 332.426 354.127 354.528 331.885 329.850 315.156 302.899 320.242 351.275 339.495 351.243 373.598 354.670 334.140 331.781 339.452 332.158 304.597 327.972 358.672 357.014 359.547 344.000 347.836 363.603 346.229 352.751 339.978 343.352 404.694 381.417 361.710 379.508 396.107 426.228 423.145 410.492 427.609 446.770 448.241 467.155 501.410 503.655 536.740 557.196 553.468 596.998 687.366 720.438 709.839 755.152 825.355 889.005 931.002 978.515 1091.820 1209.741 1326.663 1435.266 1480.579 1593.137 1793.584 2019.593 2219.745 2349.663 2444.824 2427.914 2212.253 2086.148 2035.515 1934.968 1762.227 1604.464 1422.066 1206.849 1024.993 919.654 785.332 677.118 659.817 620.155 573.698 529.385 491.165 479.994 480.057 459.928 440.425 457.188 433.308 424.794 441.655 420.361 385.392 385.900 411.409 421.762 414.731 358.359 332.430 381.040 389.258 396.271 392.828 369.177 366.233 346.447 331.571 336.291 332.328 326.757 330.314 337.769 331.466 309.212 323.366 352.026 337.823 315.523 332.050 342.204 317.050 329.790 314.057 298.981 311.888 295.546 308.181 329.949 321.691 305.983 337.866 358.478 330.263 299.201 308.686 309.873 312.181 335.682 297.229 297.349 334.993 329.471 295.162 314.317 328.523 296.286 304.589 306.182 294.686 297.569 318.854 322.582 307.985 300.620 317.589 338.293 338.361 317.473 299.440 303.837 300.141 308.383 333.101 303.192 306.208 326.449 313.405 302.300 300.872 304.903 308.109 306.680 305.512 323.998 321.947 269.336 299.108 324.707 302.162 292.792 302.875 319.811 317.808 298.243 305.025 305.246 291.003 284.065 288.550 269.548 286.355 328.303 290.393 271.467 291.668 302.855 286.076 303.121 292.628 271.431 305.936 314.076 292.918 277.423 290.860 317.882 297.412 284.456 305.808 268.645 281.308 292.390 270.671 307.761 308.580 304.757 304.027 267.531 310.251 323.156 283.114 285.079 291.944 323.744 330.684 283.126 295.419 305.077 298.555 297.883 281.107 288.101 313.098 320.373 304.222 312.588 310.027 288.881 300.761 322.810 322.693 303.434 295.372 309.593 322.267 322.344 319.975 321.519 312.224 303.039 310.032 319.431 316.801 326.596 331.094 278.230 279.394 308.466 316.933 321.314 304.673 287.778 288.135 300.730 316.435 300.900 284.767 295.689 264.921 271.169 301.133 300.008 301.325 284.445 261.244 256.189 267.254 287.239 298.290 288.952 272.487 283.901 301.777 298.699 283.661 291.039 303.110 296.161 282.706 299.284 285.958 270.727 292.851 284.606 279.190 300.319 316.590 287.107 276.641 284.833 285.818 283.879 286.322 282.404 277.321 280.285 261.620 264.147 266.173 238.737 274.388 290.111 289.604 310.062 278.752 244.842 251.807 279.592 280.227 285.717 280.912 259.546 261.007 284.685 282.003 255.156 256.585 276.096 283.800 261.288 232.212 258.343 297.024 267.825 202.195 255.981 282.193 258.198 258.430 274.971 259.264 245.686 260.172 265.694 267.576 273.115 272.590 258.353 261.216 285.368 290.066 260.151 272.821 280.144 254.081 233.812 259.770 276.237 266.711 259.031 269.626 282.378 286.137 274.170 249.780 252.554 273.435 275.878 251.477 253.695 271.783 266.263 238.033 250.737 264.182 265.240 265.697 242.504 254.875 277.955 272.999 278.107 258.059 246.400 267.423 276.741 275.348 271.317 274.267 283.452 271.811 279.853 290.657 262.650 274.044 307.161 307.264 273.973 280.030 293.526 294.973 296.017 305.968 332.543 316.859 277.107 315.520 308.535 291.341 316.836 336.895 325.254 328.069 350.934 353.482 351.216 363.538 391.863 426.624 465.086 511.044 587.861 675.786 685.036 617.059 539.871 500.470 478.311 451.529 453.572 469.076 422.468 335.276 281.668 287.743 303.286 272.804 260.990 277.541 277.205 275.254 266.241 263.930 279.804 287.689 270.970 257.808 270.920 281.149 249.105 241.451 259.841 229.761 261.582 288.482 266.072 251.342 245.282 253.725 261.999 251.176 237.848 226.920 236.778 271.338 288.446 265.844 263.483 289.919 257.684 246.670 267.307 282.744 279.578 266.632 273.641 291.117 279.014 251.609 257.785 260.102 221.684 252.817 284.541 263.325 225.532 230.281 241.381 235.312 234.570 265.498 271.102 244.536 228.397 252.461 276.022 292.349 284.064 242.888 250.856 245.014 222.050 238.461 244.650 256.059 264.322 249.592 238.065 229.353 226.403 246.952 293.054 286.204 261.524 259.440 247.408 251.569 271.842 270.237 237.571 266.006 285.902 269.586 264.888 249.879 238.149 248.334 274.021 281.889 254.724 234.738 249.214 252.489 234.984 226.330 237.790 245.467 260.904 279.814 278.472 247.773 233.982 248.081 273.875 285.056 259.672 227.481 229.596 260.106 254.845 235.913 240.427 259.022 247.190 248.719 268.611 268.429 237.269 259.702 271.816 247.993 263.129 275.751 270.851 265.058 271.297 271.503 257.243 242.930 238.544 229.013 251.593 277.304 270.015 266.175 249.937 251.085 264.237 234.590 258.868 277.633 261.153 277.055 256.006 259.728 301.758 299.254 245.028 245.956 298.444 302.526 250.490 255.058 288.101 273.207 262.711 273.433 285.504 283.779 280.725 285.307 295.527 300.919 290.309 268.025 283.551 320.472 321.007 326.384 306.447 293.402 325.032 312.126 319.703 327.366 302.957 333.373 336.593 316.685 323.714 340.678 334.117 322.055 320.712 323.365 357.369 356.844 336.299 359.241 319.753 341.279 386.841 335.125 339.625 355.633 369.592 400.569 396.291 383.304 364.244 353.606 392.752 400.283 396.452 411.996 418.045 440.369 455.197 455.890 471.530 492.300 491.662 479.912 498.560 558.207 585.857 559.871 544.072 607.118 664.911 688.019 686.410 667.121 751.523 817.767 821.103 910.022 931.129 949.233 1026.598 1101.005 1192.821 1344.113 1531.793 1687.613 1799.493 1932.773 2138.475 2424.679 2770.494 3118.579 3410.221 3799.849 4522.041 5016.901 5705.465 6785.013 7606.932 8625.927 9936.885 11494.353 13422.356 15764.667 18240.366 21097.813 24933.461 29602.256 34398.154 38540.197 40968.753 40384.449 37450.981 33680.340 30475.477 28569.109 27775.497 26896.743 24961.530 21998.010 18249.914 14662.854 11704.257 9069.698 6941.065 5524.928 4729.303 4162.826 3491.142 3090.791 2895.775 2572.896 2345.408 2142.301 1944.252 1813.019 1740.797 1678.058 1560.088 1428.066 1385.273 1273.028 1179.246 1157.500 1099.563 1072.424 1077.502 1042.077 953.588 956.651 908.424 841.465 858.837 783.709 784.781 828.495 777.618 714.839 703.267 725.107 738.240 727.308 680.378 659.782 654.680 594.090 596.871 615.484 609.951 617.928 615.682 572.606 535.646 558.547 578.800 561.860 540.035 541.054 527.729 508.313 498.003 503.597 521.545 530.067 493.656 462.735 510.289 483.203 461.156 479.976 458.400 458.639 462.151 442.944 425.359 451.446 450.724 417.008 396.350 390.612 407.490 406.622 382.818 397.479 396.080 386.435 390.295 383.249 351.713 353.360 370.410 340.744 358.387 377.756 368.925 365.686 370.571 358.999 346.048 345.436 320.095 307.392 311.175 316.264 331.109 345.694 342.585 319.688 299.783 309.835 332.917 339.056 318.715 291.748 289.378 304.380 308.773 310.159 300.234 284.395 285.246 312.984 324.060 320.784 311.498 279.049 303.913 326.981 303.779 303.550 297.902 281.264 280.154 307.809 317.775 290.812 262.678 274.418 294.256 284.129 260.952 261.472 274.186 276.096 273.039 278.060 276.600 243.224 229.960 263.428 278.311 244.085 242.149 267.073 235.741 259.616 277.261 257.078 256.853 267.255 262.295 261.117 282.258 281.029 276.125 271.123 255.973 241.537 240.263 273.896 306.753 273.576 278.975 294.372 288.393 300.767 298.021 307.271 341.687 358.363 322.327 352.402 408.678 401.619 457.186 477.793 477.286 534.503 605.863 656.495 708.246 781.017 840.421 845.207 870.227 888.855 790.091 748.344 737.878 693.145 634.787 600.164 598.527 589.342 529.222 448.942 434.003 432.939 375.853 333.347 294.243 286.671 305.907 285.679 301.892 310.233 269.174 239.293 255.864 260.589 241.384 244.484 241.642 235.533 250.687 275.397 241.510 211.182 222.633 242.926 233.805 253.974 254.036 209.141 218.378 233.825 216.554 201.190 231.284 217.680 207.018 227.336 223.413 196.675 205.333 222.623 200.484 219.983 234.823 217.375 207.468 239.542 226.361 204.947 228.580 231.448 210.032 195.146 202.073 212.975 215.374 247.070 268.955 212.116 192.771 213.766 232.229 231.663 225.990 233.236 228.339 202.352 212.171 206.394 190.471 199.334 214.174 207.153 197.848 205.899 215.062 215.827 221.066 223.732 208.132 212.834 208.925 196.566 209.778 227.129 223.164 206.097 196.380 191.014 198.805 206.885 201.919 196.203 193.132 191.253 188.789 186.229 188.310 206.836 218.924 195.806 195.769 198.603 188.210 189.249 209.428 201.012 185.247 201.416 203.117 229.067 228.549 178.923 193.950 215.534 199.394 179.301 202.848 194.458 183.117 196.167 198.537 203.391 197.003 185.245 193.881 208.879 195.505 176.981 194.270 215.882 206.981 196.950 207.997 197.866 206.919 203.152 189.202 233.862 209.705 177.999 202.113 218.127 215.746 203.573 194.067 198.063 216.017 215.155 197.459 189.366 189.744 217.544 216.200 177.971 218.560 211.930 177.347 182.302 188.595 219.939 231.615 218.274 232.960 213.640 203.635 210.587 185.443 176.199 204.633 215.595 181.680 205.898 218.538 202.157 198.007 200.650 213.865 212.096 194.851 203.837 196.594 192.039 203.468 205.549 231.411 209.818 177.506 231.781 225.049 207.640 209.327 191.392 186.099 196.670 214.034 218.478 192.010 198.693 197.827 165.787 188.795 204.020 200.835 196.193 186.535 191.294 194.160 188.599 193.193 204.668 194.212 181.680 201.111 211.980 220.939 212.362 185.286 198.030 195.436 190.989 203.921 183.783 181.615 193.158 191.472 184.037 182.461 177.324 182.182 207.219 178.225 152.257 174.142 204.211 189.399 173.260 179.865 191.545 197.499 197.496 197.405 197.965 192.095 186.884 190.974 192.157 176.090 194.073 220.609 202.899 149.742 155.796 179.548 178.870 173.180 179.033 204.979 212.066 180.252 177.438 189.338 198.765 206.031 203.763 166.739 166.564 208.830 187.443 185.264 196.216 191.247 183.643 165.777 165.011 184.508 200.035 212.883 194.510 183.329 213.071 204.601 200.388 211.699 205.073 175.435 168.746 176.913 182.746 193.961 165.634 171.110 212.525 189.861 174.105 183.475 195.130 195.172 194.095 183.156 178.958 201.186 218.787 210.031 190.090 190.789 216.441 214.721 197.793 199.418 207.434 197.777 193.604 198.375 182.055 176.078 189.126 204.748 205.120 195.629 201.531 217.786 221.968 218.808 197.631 180.015 186.813 194.597 207.597 218.298 215.671 205.863 203.063 204.192 206.608 214.190 213.294 210.148 208.368 202.013 196.787 196.654 199.638 202.636 206.440 202.148 203.997 215.990 205.376 208.178 210.140 195.807 201.413 206.532 205.437 203.814 204.950 218.904 218.915 203.361 195.538 174.669 190.572 219.458 205.678 212.786 202.942 185.878 197.536 202.882 199.012 204.059 221.336 224.781 205.728 213.711 242.341 221.890 221.858 224.118 205.215 195.342 208.286 219.708 218.416 216.894 219.768 221.400 221.000 221.042 222.045 238.783 237.979 210.801 218.099 229.972 234.649 229.792 212.107 227.209 226.309 211.374 241.776 241.108 268.009 292.313 245.965 271.812 291.913 275.836 273.911 277.935 297.178 303.198 290.022 309.494 311.304 324.762 367.053 378.371 387.438 435.893 489.037 481.347 484.060 522.269 588.145 667.437 734.867 762.080 820.681 955.733 1037.922 1123.672 1279.414 1492.669 1698.258 1883.843 2099.116 2364.029 2609.663 2757.449 2843.593 2837.534 2666.180 2516.189 2310.571 2127.940 2135.658 2079.300 2061.786 2063.601 1928.535 1717.648 1519.215 1293.818 1057.535 980.646 866.272 712.429 623.951 580.592 534.772 503.401 494.722 472.664 436.539 419.320 423.473 420.061 407.859 372.493 363.974 401.812 358.561 303.977 290.528 305.526 328.953 310.622 288.258 290.649 275.280 297.754 312.853 279.758 249.700 266.352 283.044 264.329 239.230 247.903 266.510 265.523 244.993 229.190 244.568 256.808 244.899 263.082 250.026 245.636 267.626 226.422 223.714 220.890 199.999 239.256 243.667 221.977 217.927 233.738 252.616 256.045 245.485 234.920 225.829 216.271 212.045 220.488 233.600 221.148 217.119 238.203 223.547 190.272 192.507 219.708 207.389 210.546 220.402 214.533 204.862 204.397 207.264 214.591 228.242 226.904 217.401 210.759 202.720 183.927 196.777 220.952 219.884 211.853 201.989 197.448 197.864 188.246 162.088 172.273 208.451 204.033 207.188 204.438 191.280 189.887 190.355 192.471 184.823 171.758 192.557 200.780 185.519 176.008 185.531 192.931 194.738 195.975 194.310 192.537 175.487 165.828 196.449 196.737 200.864 205.925 175.904 182.084 189.769 184.678 197.393 227.293 221.592 180.126 156.001 178.640 167.365 146.059 167.142 197.400 177.652 167.868 192.878 188.963 174.640 181.177 194.327 186.409 191.284 184.729 170.291 172.755 174.022 179.533 192.217 195.114 171.798 176.053 187.407 174.243 163.397 155.655 168.471 191.249 189.468 192.500 187.857 171.619 165.079 168.144 177.522 174.667 159.841 177.904 180.768 175.620 184.101 164.007 162.568 174.705 179.435 189.485 169.841 152.019 161.222 169.276 171.092 179.951 181.814 160.441 166.691 174.715 183.667 204.881 184.597 164.196 165.488 174.699 186.181 186.586 184.310 190.260 194.233 183.868 170.759 165.668 170.766 204.621 201.388 167.860 183.682 205.150 197.276 177.251 175.006 175.475 193.318 194.126 161.525 170.118 184.016 195.494 205.856 186.072 173.513 177.689 184.385 187.032 194.243 204.823 210.048 203.841 191.280 182.761 188.924 201.207 184.925 170.346 179.626 199.396 203.081 186.562 179.200 187.984 179.905 197.227 202.062 180.466 193.143 201.411 198.381 195.762 191.140 177.172 200.784 224.114 182.415 165.446 185.640 205.550 200.547 188.913 176.402 193.368 225.007 195.365 183.025 189.992 185.725 189.161 209.802 203.179 188.970 224.084 211.366 202.474 211.903 197.676 217.455 205.276 184.069 214.435 222.889 214.155 212.047 229.058 257.544 246.196 217.912 222.562 257.926 270.858 255.401 245.632 268.711 297.453 283.398 260.435 284.204 279.183 284.007 303.870 310.886 340.307 371.892 382.359 369.138 357.112 412.709 461.408 449.561 465.486 521.049 560.111 563.302 582.688 645.857 690.709 727.022 816.760 892.989 970.874 1073.396 1211.873 1402.423 1545.228 1725.592 2026.605 2302.719 2629.122 2959.616 3234.750 3538.371 3888.594 4014.867 3877.118 3724.878 3375.713 3126.573 3013.552 2819.463 2910.045 2919.586 2755.049 2665.268 2530.838 2347.424 2100.842 1804.372 1566.932 1352.292 1160.213 1016.327 908.251 824.000 762.441 702.762 629.817 618.696 603.477 537.205 484.973 509.327 494.509 453.130 478.282 467.478 412.344 389.879 407.679 345.952 319.465 335.986 331.627 313.981 294.981 301.481 320.258 304.566 289.663 275.097 273.721 292.488 247.911 246.532 264.916 212.960 240.850 267.610 257.604 246.877 218.147 216.420 243.908 258.895 238.151 226.813 223.598 222.888 239.144 228.368 221.069 227.542 211.359 199.448 224.301 239.912 202.462 207.975 225.844 229.652 226.581 210.928 216.549 226.008 217.959 218.674 200.404 199.079 224.978 218.261 202.672 199.923 206.763 205.815 190.951 184.672 195.790 205.965 197.278 184.998 184.072 192.525 198.170 199.188 197.073 192.982 186.390 172.667 158.512 158.754 178.888 193.602 193.001 183.813 178.591 186.435 198.239 189.379 159.683 167.565 187.060 178.077 160.129 198.259 196.958 174.704 185.008 168.392 171.748 174.239 163.472 185.439 169.022 151.604 170.586 187.187 189.916 173.890 165.563 187.017 187.490 179.723 174.013 169.487 185.206 188.005 169.887 170.576 217.698 198.143 169.582 198.054 194.405 155.889 159.061 191.115 161.095 159.714 175.669 175.102 175.589 199.946 177.339 143.276 171.117 174.038 171.518 175.346 173.045 171.503 165.180 171.651 190.326 183.101 164.152 156.227 165.343 173.016 153.158 160.702 186.676 170.429 178.655 190.715 191.671 189.554 162.022 156.075 171.342 175.919 177.909 172.383 174.270 193.654 205.259 179.354 162.201 178.365 186.529 193.167 179.127 155.094 160.428 176.202 175.004 160.268 156.428 167.921 176.433 173.234 167.988 174.825 185.112 172.394 145.781 156.861 173.611 178.992 174.150 163.057 163.909 153.649 137.599 149.596 159.899 179.681 182.305 151.215 178.968 174.923 150.642 170.519 161.974 156.152 156.641 156.184 176.936 166.072 142.919 145.967 163.817 176.882 175.357 165.950 162.166 161.755 158.967 152.687 154.853 179.569 158.677 131.406 158.133 151.337 146.090 158.041 170.068 177.463 159.373 146.418 162.337 174.556 157.259 157.935 173.208 152.537 172.054 168.943 141.864 156.878 149.736 144.044 154.865 161.905 158.641 152.124 152.244 158.985 160.959 161.576 164.254 165.920 161.456 156.244 150.039 149.985 163.309 163.684 154.734 161.747 185.237 172.892 172.180 189.460 184.953 169.777 162.160 175.773 193.997 177.536 170.995 175.509 170.669 168.441 185.935 197.511 199.238 213.484 194.685 188.322 204.015 194.964 185.509 191.420 206.205 209.831 192.718 197.663 195.349 166.112 187.460 198.061 181.317 169.946 176.900 180.112 178.890 183.946 195.758 202.674 198.806 192.652 198.155 211.063 204.756 190.903 202.094 222.229 211.524 208.581 246.215 249.056 215.545 208.544 238.474 234.279 247.107 260.644 266.005 294.526 277.585 271.216 307.771 341.353 378.473 395.080 374.996 360.727 428.097 439.088 432.111 503.797 540.620 605.884 683.071 723.894 775.365 888.019 1068.373 1259.004 1424.034 1708.333 1962.567 2171.409 2511.541 2844.134 3236.049 3561.368 3583.277 3444.631 3295.665 3037.041 2650.966 2489.406 2361.685 2298.462 2407.077 2524.692 2605.681 2505.944 2267.535 2134.491 1913.126 1617.947 1373.076 1214.082 1074.078 921.336 798.144 744.832 693.208 615.947 558.716 542.680 491.002 457.367 432.147 395.891 400.914 383.543 345.905 326.426 325.817 323.581 322.467 316.985 295.589 291.978 290.004 277.638 275.258 295.443 271.343 252.720 290.730 254.698 244.794 254.167 237.993 264.860 247.689 222.808 236.442 233.095 240.499 236.915 213.798 208.588 219.991 219.117 205.081 204.027 214.892 220.244 217.201 214.243 209.246 199.225 191.924 191.028 186.343 189.467 193.122 195.532 209.769 202.478 184.480 183.016 197.241 197.375 192.754 191.405 185.719 183.371 189.010 189.213 181.573 197.326 190.579 184.382 200.136 169.894 166.672 180.856 172.592 169.318 181.151 199.018 198.015 170.713 175.990 180.961 168.983 173.517 182.286 179.464 172.344 173.923 172.091 170.765 174.607 177.116 166.345 156.724 159.579 167.058 163.984 169.029 167.454 154.216 156.439 170.915 178.359 177.106 175.792 156.537 149.402 171.534 194.768 180.320 179.568 181.079 161.988 181.455 175.923 150.833 150.251 164.787 175.418 171.486 161.551 164.087 173.002 172.870 161.049 153.411 164.949 172.439 169.790 170.225 167.907 185.815 184.667 147.474 165.806 163.698 156.490 178.127 168.207 172.781 174.270 165.738 188.472 179.892 165.056 174.990 179.247 147.911 158.532 197.233 181.806 163.854 161.116 164.712 162.405 154.102 165.823 181.630 176.912 165.869 153.826 157.766 173.580 172.063 169.668 159.273 154.725 178.758 172.449 155.130 150.639 155.964 178.093 176.980 157.338 156.458 167.399 161.189 167.327 190.998 163.248 159.971 168.100 155.537 157.535 160.729 155.932 148.327 144.824 140.488 151.716 166.860 159.291 153.761 155.532 154.976 153.398 169.083 165.151 148.591 147.970 152.263 153.295 162.589 178.426 178.684 184.242 179.703 166.697 177.657 189.209 168.882 148.571 167.494 150.197 150.077 162.960 144.642 153.183 161.534 160.112 166.812 179.492 180.933 166.486 156.186 169.617 162.810 165.622 185.615 172.312 158.055 174.627 189.614 158.523 143.930 165.013 176.929 157.973 179.523 178.095 179.997 210.230 164.823 167.777 192.229 173.571 175.417 169.764 163.856 171.892 177.856 175.189 172.488 170.025 162.454 165.162 169.646 173.348 175.022 156.099 158.927 177.347 175.330 164.449 166.626 172.768 170.988 172.775 171.708 174.334 173.913 155.634 160.879 155.188 153.344 199.646 185.548 172.009 175.305 151.134 159.278 168.267 167.953 174.834 174.483 175.133 177.241 170.729 154.381 155.269 160.152 165.490 191.063 185.662 162.593 165.083 195.315 190.653 175.096 171.360 165.895 159.648 177.064 198.840 189.127 165.528 168.539 184.375 189.079 200.159 205.050 200.821 198.168 205.131 209.522 199.181 186.526 195.834 211.605 200.296 185.784 207.691 214.862 213.807 202.764 190.976 231.370 239.211 221.652 228.015 231.902 252.839 255.698 232.358 242.673 259.409 243.237 215.966 231.998 254.986 268.937 282.072 295.798 286.753 282.187 284.270 283.185 306.563 314.956 307.716 321.802 356.850 328.656 325.320 377.725 355.011 396.789 443.420 442.247 473.698 505.904 543.462 573.278 592.491 693.966 776.527 821.618 893.839 959.237 1068.691 1164.026 1195.348 1255.947 1252.105 1177.396 1131.222 1167.862 1135.306 1068.713 1079.289 1150.512 1115.014 1058.421 1089.020 1144.540 1074.470 1031.720 1057.328 1036.939 986.674 998.454 1022.975 994.385 1003.259 1027.522 1048.172 1065.501 1083.730 1149.404 1292.029 1429.833 1480.997 1671.947 1907.574 2083.221 2288.568 2603.318 2880.502 3079.009 3327.681 3664.837 3785.776 3728.345 3683.884 3524.167 3288.924 3128.582 3038.671 2856.329 2836.237 2874.179 2840.387 2840.963 2792.133 2709.793 2582.386 2365.032 2168.870 1966.073 1759.320 1608.511 1491.659 1346.398 1182.629 1057.806 982.829 913.706 846.611 781.289 701.477 701.784 679.210 587.564 566.531 573.615 578.185 553.986 506.977 545.682 523.193 454.166 481.284 476.984 450.981 440.022 449.963 471.757 451.842 384.323 349.371 423.885 434.976 404.722 418.848 435.680 402.619 368.369 382.374 412.744 386.813 364.557 385.825 420.593 452.503 442.266 420.367 434.913 445.333 428.685 446.752 502.067 478.011 487.400 508.048 498.247 520.673 538.091 550.995 577.037 605.011 602.979 621.328 676.721 726.083 757.555 786.335 845.758 954.752 1075.689 1122.278 1164.634 1300.316 1491.399 1766.679 1915.399 1989.109 2358.032 2570.785 2878.632 3367.554 3593.701 3721.845 3741.230 3605.848 3416.963 3326.223 3121.069 2863.209 2787.801 2762.158 2694.597 2697.089 2780.025 2694.409 2687.982 2643.743 2436.974 2275.085 2004.083 1742.917 1602.458 1464.743 1280.781 1111.108 1037.638 1026.045 880.942 764.198 727.768 675.894 660.265 633.950 575.104 524.513 520.401 498.107 474.512 472.445 441.470 408.296 396.026 404.384 413.476 394.425 383.328 391.724 379.833 341.904 350.791 360.355 299.800 296.952 328.205 320.467 281.282 301.644 295.007 290.579 313.712 272.355 259.170 253.316 235.360 256.812 245.829 232.289 233.809 219.687 230.527 256.032 257.252 228.813 225.665 219.724 218.228 236.738 227.661 216.775 220.323 217.550 188.130 189.383 221.919 244.583 233.983 212.398 200.725 200.007 205.131 228.467 226.478 197.944 190.004 208.881 220.434 200.371 175.816 204.038 209.854 198.319 199.838 178.324 182.491 187.474 180.835 206.260 202.801 179.312 174.017 186.559 177.957 181.882 198.162 190.275 184.696 194.106 196.804 182.311 186.992 182.282 187.401 206.973 179.987 174.784 174.343 158.984 172.922 168.801 170.141 189.657 187.775 171.538 187.771 201.709 159.630 159.633 187.076 181.791 145.756 161.743 169.643 163.240 168.008 158.170 168.877 171.638 145.731 139.704 159.648 163.278 153.774 171.232 157.271 153.032 173.783 178.108 175.893 163.447 151.913 160.669 179.904 174.333 171.993 188.058 163.640 170.205 185.521 169.195 160.194 155.838 153.365 155.550 159.542 151.988 154.417 170.310 178.966 183.845 164.071 149.142 169.950 165.470 147.857 150.239 168.856 163.330 163.029 162.470 152.907 160.098 166.661 153.613 137.832 150.211 157.054 166.536 175.810 159.066 134.253 149.117 167.518 138.041 135.349 153.196 168.407 168.364 149.739 154.062 160.367 142.418 136.768 162.265 173.276 151.011 142.988 158.852 150.549 131.465 154.391 153.586 146.404 146.140 140.912 150.424 168.515 160.814 135.860 165.875 165.404 138.732 140.308 155.869 160.276 159.387 158.439 148.338 147.605 139.630 133.433 154.771 152.962 140.904 141.123 150.111 154.236 145.193 145.260 160.024 142.859 133.571 139.906 146.159 156.430 150.885 147.454 162.345 171.449 147.627 126.586 125.668 123.020 135.608 137.146 133.496 146.795 135.120 132.532 142.164 143.595 156.241 151.459 145.143 163.171 175.339 144.981 126.509 141.077 125.958 126.954 139.399 140.522 135.343 138.611 150.405 150.716 132.215 135.414 145.741 142.669 131.372 132.258 134.815 127.404 119.998 135.968 154.651 148.581 126.152 124.160 126.320 136.264 145.764 134.497 134.971 135.477 136.984 150.078 134.109 118.024 125.714 140.641 135.756 133.992 144.931 154.961 150.025 126.366 117.653 132.442 130.900 131.485 132.242 131.471 139.126 137.772 130.897 130.876 139.120 140.907 135.301 125.372 119.610 131.807 132.122 131.612 140.137 119.417 125.948 135.397 124.106 140.266 136.628 128.798 136.590 135.440 127.602 128.536 139.894 142.756 124.013 134.797 155.193 138.776 143.310 133.879 120.872 133.714 136.289 133.298 142.406 152.816 135.779 139.019 142.581 123.006 114.044 140.572 145.945 124.377 125.686 111.840 114.669 130.107 124.323 128.322 131.560 127.890 125.975 129.174 134.681 141.474 143.872 131.718 117.923 128.716 142.022 116.784 140.245 149.618 126.157 140.972 139.746 133.760 137.978 138.562 130.003 130.331 135.314 139.322 159.478 137.849 115.703 136.277 136.071 127.160 132.766 140.505 126.283 141.656 155.609 138.817 119.482 121.176 132.649 136.847 131.637 128.143 128.732 130.278 135.359 148.239 127.286 117.465 145.091 126.965 100.932 112.248 145.473 144.632 123.327 128.188 145.822 124.737 117.230 128.877 137.390 129.723 116.269 124.916 142.572 138.713 127.216 134.452 132.780 109.991 119.416 122.304 126.779 140.072 127.189 116.555 122.459 133.943 134.222 126.972 135.635 145.152 130.745 137.004 132.097 126.273 143.731 132.196 136.572 146.310 132.079 133.611 154.609 158.243 137.215 134.303 135.493 137.375 138.686 132.848 132.453 137.670 130.692 110.405 125.887 139.927 136.245 133.479 125.120 128.186 136.182 135.020 135.165 133.303 132.235 132.912 129.774 134.551 135.450 131.180 136.919 130.045 124.063 127.490 129.491 135.824 148.266 153.249 142.786 139.114 141.884 138.715 133.835 149.127 146.314 137.392 140.937 130.867 120.016 129.126 149.213 150.770 147.517 138.501 131.026 136.694 133.037 135.973 144.901 139.998 129.312 131.963 138.307 136.863 144.651 133.034 128.110 146.236 138.723 124.396 121.897 132.214 142.880 135.305 127.212 132.145 136.634 127.333 129.437 138.089 129.755 129.213 140.641 144.798 134.266 133.665 128.143 137.597 156.892 130.894 134.576 138.372 123.424 147.238 144.596 129.139 128.173 130.984 138.793 142.893 137.096 127.565 127.846 133.030 140.363 146.982 143.481 151.455 161.051 149.762 128.877 136.143 151.375 146.181 133.426 127.277 127.078 120.033 103.910 111.444 126.338 136.154 144.162 135.112 131.036 139.409 147.624 151.094 144.540 132.130 124.997 128.741 130.213 130.894 131.762 127.601 141.336 143.090 133.610 148.428 135.117 125.901 133.386 131.415 143.242 144.334 141.598 152.008 137.365 115.902 122.888 147.960 135.225 128.467 130.459 127.027 132.401 135.429 126.490 114.214 116.848 131.667 151.969 151.427 121.954 128.530 141.316 141.031 141.220 135.608 134.581 137.608 141.864 154.203 152.375 150.879 153.463 131.115 128.186 125.385 116.659 134.115 128.904 121.609 139.468 161.582 148.056 142.700 142.850 123.285 137.631 138.900 137.984 154.120 128.931 130.201 137.364 118.643 124.606 133.982 144.115 144.292 118.415 126.435 139.730 138.498 149.022 157.003 136.769 117.956 135.609 137.364 122.764 129.876 154.995 131.534 131.531 140.437 131.221 153.844 150.705 127.970 124.954 140.758 134.779 138.432 144.612 117.779 139.656 151.896 124.782 111.039 135.273 139.278 127.213 137.512 144.228 136.215 131.904 141.157 141.392 129.719 116.712 121.673 146.904 137.664 125.418 128.553 121.624 135.288 151.323 155.489 153.882 141.570 135.108 137.851 139.060 136.857 139.720 139.352 137.118 153.084 147.016 142.153 147.127 123.521 130.981 130.471 115.710 140.994 148.133 137.026 132.310 136.992 132.283 137.839 144.346 131.721 126.535 141.815 143.730 127.010 146.501 139.813 126.083 142.379 159.749 161.012 140.563 125.393 141.515 134.878 130.786 145.782 155.429 155.847 146.979 135.634 135.282 152.915 157.608 142.269 130.003 142.041 162.656 156.376 135.973 153.260 148.849 154.998 175.990 156.552 161.442 179.095 179.736 169.681 171.165 172.941 179.543 201.516 213.326 203.116 187.923 198.606 240.028 243.018 225.230 237.316 269.200 278.080 274.806 292.609 327.325 320.801 334.628 388.389 428.260 475.464 536.001 580.292 605.872 678.597 713.826 685.605 652.328 649.855 628.695 617.031 613.270 540.559 523.442 522.994 494.447 498.103 503.494 522.964 543.573 529.361 521.159 513.625 501.741 483.322 433.180 401.658 389.125 366.580 349.978 324.137 295.489 288.298 298.929 257.417 237.662 259.512 227.557 233.698 252.993 243.454 223.351 206.891 218.768 225.705 196.385 205.203 216.193 217.710 225.935 223.437 240.463 243.741 214.566 215.729 229.927 233.222 232.692 247.643 249.635 249.958 262.066 272.663 268.856 273.217 295.102 313.453 309.049 315.103 336.323 348.756 352.041 371.462 402.823 420.052 421.641 468.405 523.636 562.040 635.990 715.759 767.921 814.920 911.863 1048.534 1175.503 1283.885 1397.310 1493.403 1525.234 1512.716 1479.921 1381.726 1332.031 1293.959 1199.431 1128.888 1056.771 1034.675 1045.882 983.856 1009.926 1084.930 1111.254 1086.606 1035.904 1016.123 1007.326 953.805 903.919 821.048 712.501 637.892 610.244 574.501 510.086 448.085 428.150 440.540 437.334 397.267 351.837 314.753 313.601 320.973 285.452 285.866 297.762 283.956 266.643 283.209 268.565 247.133 273.038 265.987 269.932 259.238 215.175 231.484 243.183 217.788 202.907 242.760 237.552 214.945 230.083 255.707 245.920 248.995 280.841 292.047 276.956 285.896 305.002 302.783 339.216 370.487 359.151 327.371 322.091 311.446 298.360 297.979 297.996 310.122 304.466 280.672 280.252 271.736 265.060 274.185 285.538 281.802 281.697 265.872 230.099 259.202 245.506 204.502 213.697 218.015 233.004 225.244 186.216 186.976 198.156 193.874 176.221 163.801 171.962 161.820 148.752 177.608 169.297 155.210 161.890 170.216 174.509 154.942 144.040 165.523 162.633 151.671 151.170 152.853 143.175 151.953 150.272 130.304 136.395 136.803 139.298 150.160 149.614 135.990 131.093 141.730 148.609 132.378 117.745 127.339 149.475 146.258 127.197 117.184 131.437 159.613 160.433 149.141 139.462 116.534 126.915 134.668 130.366 152.366 151.718 130.350 120.545 132.196 129.697 123.316 125.148 129.006 128.274 147.404 162.995 147.829 130.984 131.414 134.855 133.211 137.421 122.886 121.584 141.907 145.444 143.707 148.384 146.733 131.449 140.515 142.949 140.811 158.008 165.191 150.046 136.407 140.999 142.377 146.293 144.403 134.640 135.466 140.569 125.730 114.739 147.752 148.823 144.252 146.422 128.651 124.488 113.015 119.557 159.081 140.754 126.009 123.978 112.979 130.753 146.203 138.553 122.562 125.252 134.259 118.701 103.281 136.142 139.884 136.761 141.128 128.859 131.934 130.870 121.651 126.774 145.383 140.600 129.830 134.112 119.383 134.944 153.824 139.217 129.012 139.294 133.108 116.368 138.408 140.400 136.685 143.802 140.699 124.714 111.230 114.616 129.270 126.779 107.495 115.968 149.906 124.503 129.581 150.206 140.808 143.132 136.105 134.247 140.694 129.954 136.743 152.355 153.942 141.660 138.514 158.339 165.982 133.652 121.445 128.004 150.599 165.703 121.715 133.149 161.619 136.316 125.624 136.716 160.189 173.817 157.922 147.030 140.035 138.113 152.308 153.688 142.859 141.949 154.761 147.551 160.949 171.289 143.849 141.293 150.668 150.338 151.287 173.556 159.693 152.122 177.208 177.448 181.445 181.763 169.168 162.361 170.809 159.305 152.670 190.776 200.433 208.808 224.755 225.239 218.814 213.054 235.480 266.986 240.710 262.178 288.869 275.999 297.612 324.698 354.960 377.937 394.005 499.274 553.366 538.294 597.080 708.866 786.141 843.595 920.884 943.027 952.136 929.628 873.958 878.752 857.269 831.169 811.436 722.777 677.309 697.831 709.303 671.299 701.367 712.858 701.028 768.277 833.643 806.218 745.555 749.051 744.224 657.196 592.352 630.752 639.579 623.403 622.434 639.682 648.529 676.948 718.709 761.211 795.982 780.920 792.897 824.430 778.686 697.579 665.550 668.187 635.767 583.149 558.106 552.004 537.191 535.469 565.958 582.356 564.486 568.333 581.011 579.620 559.314 535.372 524.792 505.785 478.632 465.298 445.423 439.903 466.811 492.070 446.875 416.953 430.057 457.044 503.043 519.597 520.213 542.174 575.404 584.960 540.008 487.263 497.638 466.091 430.033 420.730 404.494 417.528 444.834 442.824 407.969 408.820 424.632 436.274 443.971 434.736 403.203 382.071 378.546 350.576 339.501 334.890 313.789 292.502 289.863 293.970 272.773 230.618 251.197 252.603 214.945 212.125 236.152 225.542 197.757 201.581 205.530 178.204 155.482 164.136 165.819 180.834 189.961 177.990 170.476 171.924 183.168 183.811 161.304 170.614 167.247 152.122 167.780 168.383 177.440 186.113 168.899 157.113 156.974 157.032 146.819 132.727 141.301 167.428 181.975 164.956 137.325 140.700 160.598 146.262 138.810 169.943 184.813 140.535 153.634 165.406 154.955 159.762 160.274 165.509 167.912 154.942 142.449 158.255 155.621 121.741 128.755 160.722 165.693 146.947 151.925 149.549 132.370 126.728 145.587 142.879 132.528 149.000 176.297 141.280 118.536 130.395 143.933 154.813 153.893 153.177 150.036 124.591 127.350 145.407 151.202 152.216 159.518 166.723 167.876 164.763 157.046 145.127 142.368 149.333 136.392 149.602 154.381 129.926 163.638 158.820 145.390 168.549 158.372 135.471 125.158 138.810 168.248 171.716 155.965 148.167 158.879 169.582 155.090 138.244 150.780 158.421 150.893 145.162 154.721 167.952 182.646 176.589 164.508 194.629 182.216 183.635 216.524 191.305 187.090 217.437 237.130 228.810 256.768 278.629 291.975 321.359 306.978 315.813 345.320 348.944 360.350 399.141 403.166 348.489 322.676 334.077 345.727 331.829 310.537 320.935 295.716 245.763 264.259 293.858 296.270 299.044 324.322 312.322 323.593 330.084 284.382 270.831 264.166 261.508 258.460 219.918 217.432 214.176 189.588 207.300 214.765 193.774 172.758 174.999 169.030 177.132 185.216 164.273 168.187 174.140 168.355 165.005 165.979 160.057 160.670 163.790 137.492 150.814 157.563 134.884 154.791 149.629 138.919 145.442 143.961 148.239 151.220 137.493 120.193 146.336 148.120 127.742 133.689 133.638 138.876 141.950 133.978 135.231 135.327 133.989 138.527 144.863 134.768 140.565 151.559 126.335 143.840 157.393 138.337 127.977 134.216 136.244 131.116 136.904 157.193 147.682 138.430 160.950 160.537 150.460 151.147 156.936 150.510 154.993 153.053 144.206 153.630 143.482 128.669 136.483 152.141 123.264 116.133 144.146 161.881 170.562 134.833 125.788 172.847 146.687 149.413 157.242 139.501 175.368 175.178 166.778 177.908 160.560 143.216 137.921 152.700 177.905 158.589 169.250 193.723 171.698 186.644 200.493 191.396 178.250 171.439 187.039 191.687 175.874 187.200 189.703 208.349 233.873 207.227 201.967 231.719 260.852 262.949 258.109 270.612 274.926 266.197 332.627 364.849 381.436 434.470 417.523 438.288 507.713 558.064 587.781 665.134 734.944 768.295 838.222 919.302 942.830 919.642 914.105 887.002 851.192 823.366 787.357 720.210 673.233 657.505 647.255 640.344 619.906 622.838 659.594 672.203 709.431 710.069 654.420 642.437 656.100 642.107 600.709 572.062 535.034 488.576 457.594 446.629 405.965 372.875 353.885 329.776 320.260 306.296 285.495 272.922 269.315 246.985 254.797 276.415 221.684 221.332 225.418 203.878 221.048 206.595 201.436 211.274 194.421 194.417 204.907 218.127 225.568 201.929 195.281 190.466 173.022 195.882 200.739 195.794 205.479 204.897 195.827 196.916 199.949 185.672 195.796 206.261 202.419 202.022 201.377 205.043 216.505 225.193 213.746 215.993 232.669 233.024 218.028 270.738 311.876 272.161 244.874 283.423 334.839 350.508 355.309 388.954 428.903 470.501 532.955 585.137 617.705 628.421 642.655 703.405 662.232 596.881 628.713 623.406 563.098 536.588 555.621 516.044 493.261 504.837 517.559 512.971 505.408 516.917 529.828 519.971 533.352 534.589 502.912 468.570 462.753 457.624 424.764 378.584 362.878 345.001 330.929 327.438 297.554 249.565 241.962 266.702 249.722 238.011 255.413 250.208 191.248 202.360 212.375 188.779 182.111 183.600 199.223 200.742 174.476 169.439 157.756 142.677 145.327 158.316 168.743 168.162 159.118 150.795 142.674 139.770 145.304 149.989 135.399 128.917 139.466 148.377 151.360 141.686 139.260 147.319 124.042 126.005 132.542 123.280 148.340 128.942 112.898 137.394 136.732 130.938 118.597 115.128 139.278 130.378 117.630 122.043 124.851 127.354 139.338 139.222 114.813 110.195 123.199 117.336 98.050 121.433 123.203 114.753 123.548 123.539 115.850 118.982 129.712 125.697 117.283 127.943 141.153 127.753 118.607 122.795 128.603 125.309 119.070 115.204 127.900 139.882 109.350 119.651 133.077 109.856 108.471 113.682 120.791 121.839 110.548 127.014 135.217 112.511 95.044 123.346 145.432 130.797 110.183 121.547 114.819 103.260 115.002 111.046 109.794 126.188 142.104 130.874 126.592 121.990 111.352 112.546 113.317 119.447 124.613 119.585 130.579 126.109 107.925 103.266 98.277 102.114 113.190 116.050 106.719 117.806 123.712 108.594 114.789 130.838 133.010 124.610 123.155 104.190 102.784 114.864 103.511 114.131 133.460 136.865 127.425 125.633 108.137 91.243 99.807 108.376 112.625 123.458 135.018 122.906 107.484 104.921 114.164 120.796 109.357 99.631 110.117 128.197 121.256 115.504 117.501 112.143 115.799 119.190 120.994 119.312 100.929 105.303 126.629 131.729 116.983 114.744 120.764 122.129 125.560 133.068 130.487 122.768 133.592 155.519 138.502 120.290 144.434 108.173 105.375 127.897 111.332 117.322 125.492 111.414 99.335 129.806 131.125 112.054 108.020 110.829 115.593 108.541 110.215 143.677 143.571 134.725 129.201 110.380 107.314 117.927 122.297 112.430 106.155 108.465 117.428 120.859 106.593 107.049 112.271 110.160 117.271 121.313 117.746 122.217 139.856 123.920 116.298 126.718 116.934 100.775 105.245 121.050 124.076 121.948 124.457 129.194 135.116 148.634 150.773 161.929 178.906 160.245 155.251 167.969 166.854 139.414 125.499 125.531 122.610 115.839 123.341 116.486 111.448 127.883 115.109 124.334 131.188 105.974 114.733 136.593 144.559 144.410 153.623 137.998 115.177 116.851 135.065 125.450 118.023 125.829 121.446 108.869 108.154 118.288 120.427 110.338 114.913 127.575 126.049 118.509 126.606 120.778 99.884 118.927 132.068 121.042 110.080 117.445 104.184 107.488 122.874 110.936 126.963 123.714 111.199 126.957 109.466 110.304 120.290 115.785 144.361 130.665 99.059 102.524 114.931 124.055 123.187 121.633 132.071 128.718 128.162 135.511 136.101 146.324 135.243 125.159 151.334 155.189 149.430 160.945 180.853 170.795 153.785 158.048 188.414 223.309 232.204 235.826 260.207 287.848 274.264 259.140 264.578 264.687 270.210 273.288 258.695 237.271 253.831 274.210 247.832 199.373 224.276 231.239 221.437 228.877 212.488 212.084 223.793 228.307 228.632 217.905 227.406 243.663 219.768 197.671 191.648 198.252 209.306 209.061 192.623 177.904 174.358 161.727 169.631 163.528 134.930 156.704 155.127 135.274 133.231 136.752 134.412 125.774 132.334 159.928 141.829 117.532 125.869 146.755 146.097 138.173 139.348 143.169 132.864 126.504 125.042 125.089 135.108 124.348 117.324 129.509 127.876 127.033 125.504 128.703 142.431 125.751 128.336 155.608 152.495 127.708 137.609 152.246 126.079 126.059 142.333 149.150 140.957 131.277 131.571 136.000 136.000 136.000</intensities>
      </dataPoints>
    </scan>
  </xrdMeasurement>
</xrdMeasurements>